! Forward-simulated: Re-embedded (raw/measured) — deemb_preext_vce3.5_ib120u.s2p
!   source_deembedded_file = deemb_preext_vce3.5_ib120u.s2p
!   Cpbe_fF = 22.0
!   Cpce_fF = 18.0
!   Cpbc_fF = 5.0
!   Lb_pH = 45.0
!   Lc_pH = 42.0
!   Le_pH = 6.0
!   Rpb_ohm = 0.0
!   Rpc_ohm = 0.0
!   Rpe_ohm = 0.0
# Hz S DB R 50
10000000 -0.07241765 -0.09849761 -7.85706996 173.76765804 -45.40567220 49.30801392 0.24453406 -1.63411572
14990000 -0.10782774 -0.07881933 -7.89870467 172.77588964 -48.41627509 97.30060433 0.22650936 -2.12432228
19980000 -0.08550062 -0.29342510 -7.96703855 170.23516448 -47.04179073 75.36935364 0.17772910 -2.81576535
24970000 -0.11965677 -0.51998731 -8.09405322 168.52178153 -42.32303312 84.78199505 0.17491873 -3.20938763
29960000 -0.09720219 -0.55752155 -8.21830406 166.36196818 -42.08454589 74.72774241 0.15368317 -3.99070609
34950000 -0.09883701 -0.67562373 -8.27541556 164.63813193 -40.25846582 73.86635271 0.09440518 -4.67289693
39940000 -0.09866386 -0.67898223 -8.40117882 163.04920528 -39.37502314 72.59803054 0.07631332 -5.25324112
44930000 -0.09646736 -0.74905945 -8.47029351 161.20643046 -38.30596352 76.98830981 0.03440701 -5.73155180
49920000 -0.11164344 -0.81797023 -8.60134780 159.50043364 -37.33239954 74.48545253 -0.02360069 -6.27407443
54910000 -0.12360607 -1.02631812 -8.78664780 158.04584294 -36.33236681 76.74370931 -0.07712148 -6.66876537
59900000 -0.12057195 -1.02611214 -8.85247835 156.07258929 -35.25873567 69.83183013 -0.12308180 -7.32899915
64890000 -0.12311364 -1.24427046 -8.97925530 154.59474951 -35.19601987 69.41455356 -0.19748815 -7.78600846
69880000 -0.10238878 -1.20152921 -9.04224808 153.09239768 -34.84059888 70.14422520 -0.23640634 -8.18979657
74870000 -0.12460872 -1.25383203 -9.18447656 151.78378372 -34.05014851 69.41301057 -0.28076486 -8.55260626
79860000 -0.16152374 -1.38803379 -9.33163388 150.41898940 -33.31944477 69.39670246 -0.34435234 -8.93100394
84850000 -0.15809080 -1.54710901 -9.40393882 148.93683643 -33.24500771 67.88033949 -0.40103325 -9.16940179
89840000 -0.15602507 -1.55130648 -9.55764000 147.51585530 -32.78121394 67.00453688 -0.46705371 -9.46606169
94830000 -0.16116953 -1.60369606 -9.67415206 146.46101804 -32.41156589 67.94938261 -0.51467273 -9.87481278
99820000 -0.18867811 -1.68156072 -9.78608686 144.97957405 -32.06053309 66.73090761 -0.57608999 -10.15752271
104810000 -0.18727776 -1.79977299 -9.91191070 143.75151346 -31.84321647 64.78563217 -0.63929453 -10.40429291
109800000 -0.19520439 -1.87568286 -10.01995153 142.60383979 -31.51955366 65.59267474 -0.68004482 -10.64429558
114790000 -0.19061519 -1.83405606 -10.13514948 141.53166374 -31.28782689 64.68684321 -0.73478022 -10.93197831
119780000 -0.19061492 -1.84047712 -10.28665658 140.64900189 -30.81607676 63.82152425 -0.78517139 -11.07324696
124770000 -0.19396624 -1.90019252 -10.39300266 139.40154348 -30.63458186 62.72069824 -0.83643542 -11.24906648
129760000 -0.19142859 -1.98444184 -10.52868985 138.47422419 -30.62291966 62.61500155 -0.87939865 -11.43630127
134750000 -0.20440421 -1.98271843 -10.64562577 137.55486608 -30.21876465 62.13044869 -0.93048093 -11.62304408
139740000 -0.19092235 -1.99268131 -10.74543816 136.63746793 -30.12405785 62.07515580 -0.97261072 -11.81501515
144730000 -0.18844181 -2.06249682 -10.84517536 135.62729316 -29.85740018 61.07239895 -1.00819317 -11.89535290
149720000 -0.19671435 -2.07891773 -10.96881931 134.75881611 -29.60915022 61.23108878 -1.05221619 -12.06663324
154710000 -0.18521037 -2.10043177 -11.05952118 133.68923962 -29.49258425 61.00600634 -1.09929871 -12.18420662
159700000 -0.18427386 -2.08193258 -11.17463445 132.91934774 -29.39298188 60.17991260 -1.15297522 -12.32148297
164690000 -0.19420564 -2.18539376 -11.26489544 132.03560553 -29.14245448 60.66128935 -1.19248983 -12.36488600
169680000 -0.20479842 -2.23886510 -11.39877428 131.27108078 -28.98744914 59.84425197 -1.23512492 -12.49730896
174670000 -0.20235183 -2.32349184 -11.50165924 130.39028005 -28.84238597 59.37240473 -1.28011376 -12.61822652
179660000 -0.20542702 -2.45378649 -11.58623479 129.48068791 -28.68042176 58.85651315 -1.31939994 -12.72646303
184650000 -0.20928875 -2.44836919 -11.69259808 128.81117286 -28.58951979 59.54016563 -1.36772393 -12.69911924
189640000 -0.22030730 -2.54311848 -11.78078360 128.09651235 -28.48374451 58.94634437 -1.39826269 -12.89926018
194630000 -0.23708294 -2.61099860 -11.90549768 127.29557386 -28.25357416 59.31602854 -1.45810582 -12.92172592
199620000 -0.24887379 -2.55416248 -11.98388622 126.65067985 -28.22236105 58.54874865 -1.48952820 -13.17471996
204610000 -0.26208809 -2.38750769 -12.10830891 125.99279765 -28.02535950 58.59332711 -1.54468801 -13.10734953
209600000 -0.23071659 -2.59143808 -12.20947035 125.23446817 -27.98521862 57.58018430 -1.59258838 -13.15684694
214590000 -0.26167708 -2.90110089 -12.25140617 124.37141258 -27.79392522 57.48698801 -1.62120109 -12.73285311
219580000 -0.26045159 -2.80495358 -12.34804713 123.76871748 -27.75674379 58.81390144 -1.57914137 -12.98448957
224570000 -0.27588564 -2.81584383 -12.48249335 123.14780885 -27.67398233 57.46904731 -1.63264651 -13.35664672
229560000 -0.26016944 -2.70779127 -12.53220231 122.72766827 -27.58302160 58.28605229 -1.66336010 -13.35615088
234550000 -0.25461700 -2.67077863 -12.64453934 122.20770853 -27.42447325 57.74468243 -1.69994616 -13.36288094
239540000 -0.26312041 -2.73643765 -12.73537623 121.78459328 -27.28333843 57.69924068 -1.72729789 -13.51929890
244530000 -0.25215073 -2.76913286 -12.78516026 120.99926863 -27.22833020 57.90417743 -1.76407782 -13.49821521
249520000 -0.22506123 -2.81806163 -12.85256461 120.63805220 -27.11363450 57.06397682 -1.77721816 -13.51151258
254510000 -0.21667472 -2.79599173 -12.90699230 120.11659514 -26.95401498 57.86645454 -1.78614745 -13.47976010
259500000 -0.24146084 -2.83736018 -13.02663636 119.55857044 -26.89857144 55.87412756 -1.83618310 -13.55766667
264490000 -0.25637719 -2.89003507 -13.10335088 119.10466840 -26.60351195 57.34248701 -1.86167396 -13.53533077
269480000 -0.21594143 -3.03638564 -13.16628183 118.38213853 -26.65604306 56.99180075 -1.87210686 -13.68018661
274470000 -0.23110334 -3.01450719 -13.21475328 117.77882802 -26.48039225 57.26027800 -1.89492574 -13.72893236
279460000 -0.22903066 -3.09806066 -13.27639670 117.47546368 -26.38676855 56.44954412 -1.93041003 -13.75832392
284450000 -0.21180719 -3.02012712 -13.33307513 116.80633730 -26.39086235 57.19368626 -1.96435573 -13.70680923
289440000 -0.23206548 -3.20229042 -13.39616099 116.48463071 -26.44585018 56.34873229 -1.97613924 -13.78504895
294430000 -0.26176992 -3.28920475 -13.48128182 115.71696428 -26.43037324 56.94694215 -2.01406292 -13.78464598
299420000 -0.25559346 -3.37269045 -13.53693342 115.05741212 -26.13958096 55.26640840 -2.04694940 -13.87096922
304410000 -0.27032935 -3.56242299 -13.59570224 114.72741050 -26.18235998 56.15314471 -2.06420592 -13.93696777
309400000 -0.28010111 -3.62682637 -13.63487480 114.36475654 -26.00674498 56.62563161 -2.10698980 -13.94448804
314390000 -0.30327840 -3.53554681 -13.73004611 113.69140685 -25.92710975 56.61348499 -2.10975105 -13.86204402
319380000 -0.30618450 -3.70567886 -13.78906453 113.25768034 -25.84536877 56.75236639 -2.13560382 -13.81918884
324370000 -0.28867669 -3.53307056 -13.82853805 112.90992000 -25.66023020 56.72231429 -2.13513764 -13.85124218
329360000 -0.30190693 -3.59450344 -13.92395563 112.55595733 -25.69042618 57.30191807 -2.14228488 -13.90859774
334350000 -0.29941095 -3.56145544 -13.94796141 111.87997521 -25.73126234 56.10960330 -2.16844603 -14.04119490
339340000 -0.28510973 -3.53569019 -14.02617987 111.47520286 -25.66878819 55.82564257 -2.17137639 -14.06731027
344330000 -0.28076652 -3.49121163 -14.08526754 111.09939762 -25.49339871 56.68894921 -2.21465262 -14.05185185
349320000 -0.24075564 -3.42807364 -14.13938660 110.99983575 -25.41163348 56.89525956 -2.21595814 -14.04102950
354310000 -0.25904171 -3.49108694 -14.21128861 110.43100880 -25.35331427 56.66514962 -2.21353631 -14.16088131
359300000 -0.24412421 -3.39067652 -14.21696279 110.35118412 -25.35779085 56.86291001 -2.24610016 -14.12705335
364290000 -0.23677526 -3.53934990 -14.24029463 109.75507801 -25.23022822 57.12715150 -2.25986550 -14.16398331
369280000 -0.23154151 -3.60678927 -14.29643164 109.35087279 -25.21396782 56.55496491 -2.26784378 -14.19385943
374270000 -0.21576877 -3.69415248 -14.30845154 109.03437441 -25.07752737 56.40933977 -2.28959995 -14.22875093
379260000 -0.20558926 -3.76451479 -14.36925025 108.52066820 -25.05948287 56.79880128 -2.31126657 -14.19957533
384250000 -0.22041375 -3.88068150 -14.39468380 108.16853286 -24.93241229 56.04761198 -2.31744219 -14.24317717
389240000 -0.23103675 -3.93470194 -14.46653019 107.91659042 -24.92968674 56.32834879 -2.35546846 -14.30270786
394230000 -0.21836548 -4.00095252 -14.50381316 107.23952926 -24.88430997 56.11885211 -2.36278562 -14.32721698
399220000 -0.23122856 -4.19827275 -14.56336258 106.98659074 -24.76513151 56.59888015 -2.37014519 -14.32438661
404210000 -0.23579428 -4.15365103 -14.57886570 106.81123866 -24.71929435 56.42722115 -2.39708104 -14.41709220
409200000 -0.24789492 -4.33873938 -14.63092304 106.20613728 -24.61515093 56.08885690 -2.40930888 -14.46721522
414190000 -0.25012850 -4.51527651 -14.64049009 105.71291088 -24.64575158 56.47454010 -2.42970696 -14.48411013
419180000 -0.26072676 -4.54625622 -14.68739905 105.33096690 -24.49182766 56.54237910 -2.44644081 -14.50791296
424170000 -0.26599033 -4.65286682 -14.72826153 105.10802399 -24.49844144 56.15746510 -2.45400856 -14.49550981
429160000 -0.29751897 -4.61181597 -14.77890174 104.58723595 -24.41085771 56.42419252 -2.46831842 -14.58546088
434150000 -0.32090729 -4.64367540 -14.84327824 104.22937562 -24.37502359 56.29589119 -2.47266293 -14.59217867
439140000 -0.32353436 -4.42442721 -14.83351704 103.85971914 -24.26100787 56.55009209 -2.48127775 -14.61159979
444130000 -0.31757272 -4.36949984 -14.90076178 103.74704817 -24.26690206 56.94833974 -2.49049538 -14.63630021
449120000 -0.30328171 -4.34386941 -14.94546191 103.54962551 -24.25181025 56.64272368 -2.50210235 -14.63264110
454110000 -0.28069866 -4.22656917 -14.99759079 103.36916372 -24.10914844 56.59785139 -2.50278402 -14.66882584
459100000 -0.24702850 -4.19999977 -14.99656913 103.07673888 -24.09191881 56.87724455 -2.51264542 -14.61491452
464090000 -0.24329672 -4.19781040 -15.00084254 102.97072297 -24.00472511 56.57613959 -2.52434485 -14.69158070
469080000 -0.20982120 -4.33641906 -15.01115984 102.63467914 -23.93841490 56.71012444 -2.53156119 -14.68140468
474070000 -0.21046896 -4.37836038 -15.02299294 102.15313313 -23.81866990 57.14845759 -2.53623449 -14.72079060
479060000 -0.19727272 -4.47648838 -15.03825212 101.87457840 -23.74781000 56.79441288 -2.54334664 -14.76341028
484050000 -0.19336525 -4.55288278 -15.05457588 101.54448881 -23.72370439 56.67192460 -2.55223977 -14.81029248
489040000 -0.18869870 -4.64391314 -15.08871147 101.17934674 -23.69877220 57.19317065 -2.58077556 -14.83169404
494030000 -0.19372258 -4.75434950 -15.11807530 100.93505344 -23.59826037 57.07289689 -2.58822207 -14.88467476
499020000 -0.20292072 -4.79100814 -15.14159817 100.54650182 -23.61173626 56.99218921 -2.60240577 -14.85069979
504010000 -0.20105124 -4.89342055 -15.16669572 99.90540245 -23.54650029 57.02137596 -2.61829130 -14.91806791
509000000 -0.21375666 -5.10067290 -15.17111855 99.64097372 -23.46720834 56.58011182 -2.62671678 -14.98633064
513990000 -0.21698259 -5.10930574 -15.19254925 99.54983201 -23.48614910 56.64077028 -2.63500352 -14.89697955
518980000 -0.23864482 -5.14761571 -15.24432056 99.23319066 -23.37029431 57.07144124 -2.65691814 -14.98602348
523970000 -0.23094112 -5.36308239 -15.25926247 98.59225868 -23.34260012 56.13808152 -2.65898092 -15.08813360
528960000 -0.26241951 -5.38677338 -15.27682806 98.55039012 -23.30656284 56.72286469 -2.67334043 -15.07892940
533950000 -0.28623054 -5.67607413 -15.32702905 98.11088866 -23.25171454 56.35658547 -2.68976264 -15.14934449
538940000 -0.29730200 -5.59606710 -15.31561004 97.78749852 -23.13603723 56.15509692 -2.68432564 -15.08970778
543930000 -0.31377640 -5.49996877 -15.40885662 97.93158293 -23.15257720 56.49775905 -2.70271238 -15.22430144
548920000 -0.32580954 -5.41291297 -15.40502777 97.25551019 -23.13513786 56.99595285 -2.70025655 -15.17067058
553910000 -0.32417442 -5.20354827 -15.41832547 97.26191066 -23.09276150 56.93934407 -2.72372336 -15.24793661
558900000 -0.30720300 -5.08610092 -15.46573224 97.03559883 -23.02942605 56.54877768 -2.71222279 -15.30109319
563890000 -0.28792040 -5.13153339 -15.47320079 97.02408855 -22.97282801 57.14462147 -2.72264769 -15.32646739
568880000 -0.24815811 -4.92971453 -15.44240266 97.00168554 -22.92212225 57.05442399 -2.72558968 -15.34599724
573870000 -0.21112213 -4.94561084 -15.45435988 96.60051360 -22.80445383 57.57890860 -2.74199026 -15.33530124
578860000 -0.21042050 -5.16598481 -15.47695704 96.01930047 -22.73262572 57.49635738 -2.74233999 -15.37200202
583850000 -0.18302516 -5.23412213 -15.46489331 96.10802679 -22.70368334 57.26512674 -2.75486738 -15.41489555
588840000 -0.17302479 -5.41301717 -15.44224210 95.88149963 -22.69646257 57.04051498 -2.76068394 -15.43618612
593830000 -0.17680646 -5.30839038 -15.43210222 95.47971968 -22.60042788 57.38091635 -2.78082664 -15.47514190
598820000 -0.18092965 -5.48648864 -15.47691495 95.35486485 -22.56608772 57.10672280 -2.78550935 -15.43831184
603810000 -0.17811479 -5.59952253 -15.50434121 94.96306776 -22.49826569 56.80589962 -2.79646760 -15.53033137
608800000 -0.18288515 -5.79710767 -15.50327577 94.69937690 -22.53318239 57.17281485 -2.80098979 -15.53938955
613790000 -0.19466981 -5.93499622 -15.50489704 94.25867928 -22.41366978 57.40555451 -2.81350840 -15.54231067
618780000 -0.19805697 -5.99281395 -15.50908776 93.99379838 -22.36588954 56.90765285 -2.82489707 -15.55167242
623770000 -0.20241987 -6.18218008 -15.53260603 93.72161149 -22.31716339 57.17632069 -2.83072476 -15.65772733
628760000 -0.23479059 -6.31335103 -15.57249748 93.48872031 -22.28498329 56.71338365 -2.84931480 -15.69930931
633750000 -0.23703538 -6.35246390 -15.56112015 93.16589805 -22.20377998 56.81006335 -2.84096481 -15.78378982
638740000 -0.26048704 -6.45571265 -15.60921953 92.89136014 -22.19753102 56.89463707 -2.85084661 -15.85400883
643730000 -0.27532696 -6.52359123 -15.61513987 92.71045741 -22.11130634 56.90590188 -2.85823648 -15.85937248
648720000 -0.29186959 -6.54579750 -15.62759425 92.46167582 -22.08515763 56.54373516 -2.85678677 -15.87127825
653710000 -0.32838274 -6.56763608 -15.67366979 92.12744975 -22.11079701 56.79570105 -2.88174411 -15.92421840
658700000 -0.34494965 -6.35455023 -15.67554372 91.98173151 -22.06075206 56.71280131 -2.86930780 -15.96970790
663690000 -0.33080987 -6.17220531 -15.67299792 91.91613935 -22.10622219 56.97726506 -2.88816204 -16.02106345
668680000 -0.31416712 -5.89760240 -15.65949126 92.05725145 -21.99816949 57.19621145 -2.88981295 -16.12952409
673670000 -0.29964707 -5.90405898 -15.66854403 91.89349927 -21.93332185 57.08829801 -2.88274287 -16.13156182
678660000 -0.26531858 -5.86295449 -15.65665074 91.78394649 -21.84796070 57.67613343 -2.88876039 -16.13210513
683650000 -0.23917679 -5.84371166 -15.63677666 91.28158629 -21.86773504 56.77032065 -2.89117993 -16.18497891
688640000 -0.22113094 -5.90118424 -15.66869350 91.24853461 -21.72069472 57.13699213 -2.90224400 -16.22371011
693630000 -0.20447628 -6.07476973 -15.66245315 91.06715537 -21.66509679 57.24226283 -2.91726426 -16.16820640
698620000 -0.18544086 -6.12448631 -15.64682932 90.75470544 -21.66097531 57.14917698 -2.91084792 -16.25041553
703610000 -0.17398852 -6.26012649 -15.63741050 90.41842969 -21.59746940 57.37628096 -2.92957337 -16.34989684
708600000 -0.17531599 -6.34306726 -15.64744612 90.27260840 -21.55211803 57.31800598 -2.93388073 -16.40434160
713590000 -0.18238705 -6.49085624 -15.63215091 89.84599202 -21.54669285 57.06009485 -2.94099338 -16.37783865
718580000 -0.19573133 -6.64458678 -15.65246270 89.54230964 -21.50646957 57.13471917 -2.96458767 -16.44066980
723570000 -0.18950903 -6.78952399 -15.66525524 89.49282217 -21.48344614 57.14894375 -2.97012106 -16.53769993
728560000 -0.20596667 -6.94536378 -15.67319306 89.30347578 -21.35307005 56.82162377 -2.96855457 -16.48546619
733550000 -0.21823252 -7.07373578 -15.68148234 89.00087903 -21.37691277 57.06058166 -2.98759682 -16.58635100
738540000 -0.24000180 -7.16148815 -15.67297448 88.63106908 -21.31411435 56.82760451 -2.98924164 -16.63368453
743530000 -0.25017003 -7.24465375 -15.68809230 88.32976095 -21.35899531 56.87941949 -3.00210480 -16.69782308
748520000 -0.26378497 -7.35704127 -15.70693873 88.22339958 -21.26301005 56.72179116 -2.99908935 -16.68623017
753510000 -0.27344595 -7.40076048 -15.70308898 88.14049839 -21.24734679 56.89706583 -3.00084625 -16.78306638
758500000 -0.32319989 -7.46864977 -15.72755273 87.75058723 -21.17769308 56.79118620 -3.00518940 -16.83441973
763490000 -0.33869268 -7.50245967 -15.75827394 87.64231497 -21.19677325 56.61330916 -3.00850443 -16.81540517
768480000 -0.36098167 -7.29763280 -15.75872128 87.41090514 -21.16456246 56.73828099 -3.00530789 -16.89494741
773470000 -0.35625052 -7.08712259 -15.77223886 87.56194631 -21.09191936 56.94637787 -3.00767373 -16.90740259
778460000 -0.33668146 -6.95494457 -15.75927805 87.24767449 -21.03675854 56.96169924 -3.00897555 -16.96906877
783450000 -0.30409049 -6.78066355 -15.71064847 87.32557352 -20.99730584 57.51307464 -3.01359430 -16.99934820
788440000 -0.28655388 -6.76380896 -15.71603749 87.22887263 -20.94141721 57.47594926 -3.01322262 -17.01028784
793430000 -0.25721033 -6.80777020 -15.69819372 87.10395173 -20.90117102 57.11815562 -3.01303558 -17.06191297
798420000 -0.23401626 -6.93423391 -15.70775354 86.89032112 -20.83985745 57.15014401 -3.01639229 -17.12294448
803410000 -0.22920276 -7.07354863 -15.70055711 86.52528658 -20.79829160 56.87466611 -3.03018235 -17.17625544
808400000 -0.21724906 -7.15933828 -15.71046938 86.28144789 -20.77834260 57.10586431 -3.04146307 -17.18491173
813390000 -0.24066439 -7.25546167 -15.70854694 85.85615763 -20.72256867 56.92263022 -3.04876690 -17.26884125
818380000 -0.21565564 -7.38580898 -15.68584613 85.81441850 -20.66883729 56.95455466 -3.06318705 -17.28816356
823370000 -0.22470494 -7.53716262 -15.68527398 85.51171284 -20.63458329 56.59097984 -3.07811259 -17.37776889
828360000 -0.23283073 -7.64172738 -15.69376240 85.45117312 -20.59987381 56.98598827 -3.08096010 -17.32503002
833350000 -0.24692837 -7.72228851 -15.69928965 85.20134273 -20.52440311 56.70619594 -3.08709220 -17.37748634
838340000 -0.24855947 -7.85608621 -15.67549506 85.02679200 -20.54125089 56.42555230 -3.09148096 -17.41672057
843330000 -0.26598389 -7.94547009 -15.70525401 84.70567966 -20.51976459 56.66720758 -3.10581636 -17.43164336
848320000 -0.27637059 -8.07151035 -15.70729420 84.57666237 -20.49100399 56.55068412 -3.11782862 -17.57021021
853310000 -0.29278423 -8.10600158 -15.71677029 84.50307408 -20.52994737 56.81139389 -3.11663618 -17.58981154
858300000 -0.30293096 -8.29238354 -15.68859240 84.27941737 -20.48862901 56.62123677 -3.12233870 -17.61269314
863290000 -0.31745536 -8.39809349 -15.72797933 83.94767282 -20.39333630 56.38097748 -3.12624732 -17.69498396
868280000 -0.34027062 -8.38479597 -15.73290343 83.90908281 -20.42336239 56.64762948 -3.12926676 -17.74296539
873270000 -0.36918563 -8.37849129 -15.72718385 83.74692906 -20.39326472 56.47470817 -3.12782785 -17.81368885
878260000 -0.37497377 -8.18853244 -15.70738141 83.84350723 -20.31345950 56.85443185 -3.13250965 -17.87519542
883250000 -0.38794702 -8.03990486 -15.73927153 83.65508927 -20.26535554 56.90026727 -3.13522111 -17.89298504
888240000 -0.36306644 -7.84619727 -15.72616590 83.56126602 -20.26112732 57.18990767 -3.14432768 -17.87591174
893230000 -0.33670529 -7.74929311 -15.71338220 83.50564024 -20.16742401 56.95211723 -3.14183212 -17.93279884
898220000 -0.31747923 -7.68806996 -15.69179032 83.31666206 -20.15110405 57.16488047 -3.15178238 -17.91441890
903210000 -0.29241794 -7.72581147 -15.67948842 83.27333499 -20.10847142 57.16682541 -3.14881886 -17.97945020
908200000 -0.26642216 -7.81875329 -15.64331131 83.04591662 -20.03762246 56.72051973 -3.15045935 -18.01662909
913190000 -0.25828430 -8.00672975 -15.62880519 82.75536256 -20.01398987 56.90692531 -3.15832855 -18.09465584
918180000 -0.25281965 -7.99940282 -15.64220984 82.74267531 -19.97357959 56.80761920 -3.16008291 -18.10642189
923170000 -0.25484961 -8.17116966 -15.66070290 82.43987450 -19.98251925 56.74070519 -3.17163177 -18.04717128
928160000 -0.26585846 -8.28151036 -15.63285060 82.11210731 -19.91872868 56.54429387 -3.18602215 -18.18508429
933150000 -0.27273541 -8.37319902 -15.64268428 81.90680120 -19.87495261 56.57822636 -3.19183967 -18.25290672
938140000 -0.28625930 -8.48345639 -15.63106178 81.72739387 -19.88609248 56.45365800 -3.19270405 -18.32801594
943130000 -0.30098505 -8.54790906 -15.63603886 81.63299861 -19.84263939 56.65285371 -3.20418179 -18.30454088
948120000 -0.31554399 -8.66260287 -15.63224771 81.36516416 -19.80499011 56.20906394 -3.21831787 -18.41182496
953110000 -0.31898258 -8.75281463 -15.62902157 81.19212652 -19.76090761 56.13548082 -3.22001770 -18.48948299
958100000 -0.32773332 -8.92061373 -15.66443811 80.97945921 -19.75996260 56.24117483 -3.22757533 -18.52855970
963090000 -0.33243263 -8.98569503 -15.64444950 80.83810385 -19.73753798 56.29439052 -3.22684753 -18.57384678
968080000 -0.34330629 -9.05363905 -15.63345751 80.71966365 -19.72895901 56.43761141 -3.22322280 -18.66847000
973070000 -0.37263693 -9.09447411 -15.64454561 80.75233495 -19.68191964 56.50517201 -3.22939277 -18.68787475
978060000 -0.38923557 -9.23733064 -15.63239947 80.40563167 -19.67357260 56.32123833 -3.24036998 -18.71105908
983050000 -0.41280939 -9.19238776 -15.65058284 80.46658615 -19.60062094 56.28781432 -3.23723175 -18.82288594
988040000 -0.42356326 -9.04621060 -15.64851974 80.35463239 -19.59080277 56.53761938 -3.23182714 -18.91184496
993030000 -0.42465313 -8.88434051 -15.61669918 80.17916264 -19.59979893 56.38390632 -3.23896489 -18.95138073
998020000 -0.42558697 -8.75767876 -15.61267281 80.30880321 -19.53125212 56.49679705 -3.24257941 -18.95808802
1003010000 -0.40122574 -8.60383397 -15.61869052 80.29048960 -19.46965548 56.51128724 -3.24409197 -19.04386144
1008000000 -0.38078833 -8.48017362 -15.60222845 79.98790341 -19.41312682 56.34734180 -3.25300348 -19.06452655
1012990000 -0.35515222 -8.51890879 -15.54347770 79.95220674 -19.38982677 56.51632682 -3.25212980 -19.09965724
1017980000 -0.32520255 -8.59720209 -15.53863047 79.70753784 -19.36815910 56.51533015 -3.25642560 -19.20532959
1022970000 -0.33461462 -8.75484388 -15.55888072 79.44003705 -19.31830346 56.37351295 -3.26237706 -19.18321014
1027960000 -0.32134474 -8.80573714 -15.52514929 79.30048912 -19.28819607 56.20199961 -3.27031695 -19.25225048
1032950000 -0.32097351 -8.90144234 -15.51150484 79.22571576 -19.29648419 56.01038178 -3.28944181 -19.23152860
1037940000 -0.34169645 -9.04328066 -15.53043916 78.96186889 -19.22027013 56.01808577 -3.29164809 -19.29837179
1042930000 -0.35462461 -9.15945811 -15.52168898 78.74536331 -19.22675667 56.09558874 -3.30398717 -19.28387855
1047920000 -0.36204551 -9.26106467 -15.53376608 78.51950137 -19.16850882 56.14215605 -3.30761188 -19.36027855
1052910000 -0.36132601 -9.37496011 -15.52400509 78.45970721 -19.16500434 56.14662338 -3.32272306 -19.42203601
1057900000 -0.37842686 -9.40385997 -15.50331162 78.34576416 -19.12049165 56.04915500 -3.32024396 -19.42241116
1062890000 -0.39257932 -9.51082135 -15.54371111 78.30962329 -19.09771525 55.78781558 -3.32364649 -19.53514757
1067880000 -0.39783180 -9.59979065 -15.51337472 78.00693990 -19.06660603 56.06756944 -3.32530917 -19.58131514
1072870000 -0.40950756 -9.80599564 -15.52605343 78.03528377 -19.10636421 56.21100368 -3.33430890 -19.59087491
1077860000 -0.42419833 -9.85908474 -15.51351589 77.90848648 -19.04356441 55.89220597 -3.33011181 -19.63720377
1082850000 -0.42871877 -9.88697662 -15.49619687 77.70285656 -19.02056837 56.06386925 -3.33818698 -19.73720638
1087840000 -0.44215929 -9.97641168 -15.50776678 77.64691083 -19.00825553 56.20274564 -3.32492728 -19.78120085
1092830000 -0.45258780 -9.93662692 -15.48352486 77.37147203 -18.98369849 56.08851834 -3.33396038 -19.82906682
1097820000 -0.46062302 -9.88578105 -15.46308270 77.64697632 -18.95082599 56.09449429 -3.33314321 -19.90232976
1102810000 -0.47250744 -9.77166956 -15.49204358 77.48188106 -18.93202359 55.87035899 -3.33480930 -19.97517080
1107800000 -0.47518923 -9.64908749 -15.45856587 77.34023212 -18.92478101 56.04063365 -3.32859839 -19.97349862
1112790000 -0.45863635 -9.50568662 -15.45341312 77.22098810 -18.83504959 56.13847989 -3.33686990 -20.05049670
1117780000 -0.44291210 -9.45859235 -15.45136582 77.13246772 -18.79589368 56.12190540 -3.34860374 -20.02289019
1122770000 -0.42495363 -9.48628868 -15.39086920 76.95245203 -18.75470553 56.09977043 -3.35184577 -20.14152315
1127760000 -0.41393655 -9.55484691 -15.38925750 76.64601790 -18.75801236 55.93276684 -3.35703331 -20.09800030
1132750000 -0.41987900 -9.59238354 -15.39957387 76.71147002 -18.71765145 55.86616796 -3.37341886 -20.21077444
1137740000 -0.41586118 -9.69129113 -15.37081022 76.59329299 -18.65725877 55.94789547 -3.38150578 -20.18334041
1142730000 -0.40763833 -9.81495071 -15.39463637 76.27864695 -18.63375224 55.54783530 -3.38018931 -20.27975160
1147720000 -0.42500744 -9.86059420 -15.39200251 76.08669750 -18.60404960 55.54751877 -3.38769603 -20.34127803
1152710000 -0.43999848 -9.90977926 -15.36788333 75.91766398 -18.60554583 55.77028086 -3.39653151 -20.36564029
1157700000 -0.43575479 -9.99159830 -15.36798420 76.03984989 -18.57684794 55.57273112 -3.41807339 -20.44498765
1162690000 -0.45001258 -10.06878432 -15.37111334 75.76405406 -18.56644432 55.59230184 -3.41619089 -20.54449019
1167680000 -0.45670455 -10.20730974 -15.37583521 75.65425868 -18.53248960 55.69164267 -3.41080016 -20.57262714
1172670000 -0.46787144 -10.27285355 -15.35832604 75.60784070 -18.50805674 55.60200716 -3.42004816 -20.60191264
1177660000 -0.47154487 -10.33835381 -15.35011359 75.59100323 -18.49892429 55.65429631 -3.43063831 -20.67840554
1182650000 -0.47951364 -10.38054658 -15.34893648 75.34377880 -18.48567755 55.42719888 -3.42072500 -20.75788928
1187640000 -0.47791791 -10.51048701 -15.33903763 75.25632722 -18.48373318 55.61565356 -3.42823113 -20.76447542
1192630000 -0.48657280 -10.55190291 -15.33529934 75.15816833 -18.42214795 55.41509571 -3.43041474 -20.85630790
1197620000 -0.50105350 -10.58988849 -15.32108053 75.21687630 -18.40224387 55.73226393 -3.43620250 -20.93200821
1202610000 -0.50713073 -10.56040962 -15.32915535 75.01244829 -18.39074975 55.59162418 -3.44454727 -20.93689529
1207600000 -0.51496586 -10.58377662 -15.30126768 74.88234002 -18.36229481 55.65919181 -3.46025569 -21.01582784
1212590000 -0.52060921 -10.53962658 -15.31419289 74.78620637 -18.34215628 55.64877957 -3.44663741 -21.02927932
1217580000 -0.52297111 -10.45826072 -15.30096691 74.81470241 -18.33122464 55.81150812 -3.45973325 -21.00992874
1222570000 -0.51950528 -10.36712407 -15.28091086 74.76901324 -18.28884850 55.66409237 -3.45563102 -21.10078931
1227560000 -0.51376659 -10.22931111 -15.25114237 74.46374350 -18.23279253 55.54121509 -3.45681766 -21.17708647
1232550000 -0.49078185 -10.26806572 -15.23599713 74.34789780 -18.19559554 55.59053797 -3.45911668 -21.21314744
1237540000 -0.47793301 -10.29133015 -15.23192108 74.54191733 -18.15994934 55.45586322 -3.45980198 -21.13781719
1242530000 -0.48882331 -10.44310959 -15.21280261 74.26963458 -18.15733979 55.55584698 -3.48264748 -21.17860420
1247520000 -0.49353005 -10.44969653 -15.21268574 74.12059590 -18.11676414 55.45460582 -3.48053970 -21.26240981
1252510000 -0.49546868 -10.55153782 -15.18203252 73.79819652 -18.09174682 55.28608347 -3.48887415 -21.26752921
1257500000 -0.50653426 -10.56998075 -15.19984977 73.89234476 -18.07849820 55.26852486 -3.49021483 -21.35990661
1262490000 -0.51413476 -10.62211667 -15.19953959 73.64693964 -18.06207508 55.38934334 -3.50233029 -21.43035975
1267480000 -0.52060239 -10.74586508 -15.18830742 73.62360795 -18.04699635 55.17054467 -3.50407722 -21.49551628
1272470000 -0.53553891 -10.78841459 -15.18790328 73.49861013 -18.02586756 55.15063956 -3.51222840 -21.55586186
1277460000 -0.53356421 -10.86798296 -15.14520917 73.44365035 -17.97686197 55.24242575 -3.51134516 -21.61558134
1282450000 -0.54652443 -10.89379014 -15.19170959 73.30216576 -17.99349379 55.11101264 -3.52603540 -21.68025167
1287440000 -0.55301506 -11.04843230 -15.15387259 73.38680152 -17.94118968 54.99333134 -3.52142044 -21.80669854
1292430000 -0.55553347 -11.12216285 -15.16493850 73.11206858 -17.95362189 55.16471823 -3.52858467 -21.88512394
1297420000 -0.55504538 -11.11666506 -15.12656933 73.04610170 -17.91948297 55.35393946 -3.52525078 -21.90297242
1302410000 -0.55828056 -11.15456694 -15.13425410 73.03229807 -17.88356282 55.20307987 -3.52834534 -21.94368115
1307400000 -0.55762409 -11.23144614 -15.11363536 72.67856553 -17.88031819 55.07986684 -3.53765767 -21.99923357
1312390000 -0.56842167 -11.24105741 -15.11100139 72.71327974 -17.84626668 55.13921430 -3.53576368 -22.05769312
1317380000 -0.57086612 -11.23377762 -15.12753259 72.61641878 -17.82522241 55.18396240 -3.53720901 -22.13334243
1322370000 -0.57177269 -11.19644453 -15.10753650 72.65641677 -17.80161056 55.24717397 -3.54450762 -22.14010787
1327360000 -0.57279639 -11.14907034 -15.07646797 72.66781679 -17.77161375 55.14063835 -3.54970923 -22.15192712
1332350000 -0.56430859 -11.05934330 -15.05527188 72.56495368 -17.73438221 55.09670127 -3.54796461 -22.16534026
1337340000 -0.56881773 -11.07067222 -15.02047904 72.28820814 -17.69394465 55.03645874 -3.56380746 -22.23211898
1342330000 -0.55905885 -11.08465774 -15.02937238 72.29215799 -17.68919208 55.00078011 -3.56481408 -22.22308477
1347320000 -0.56076817 -11.13489914 -15.00569861 72.08012443 -17.64605652 54.90310509 -3.56862932 -22.33410607
1352310000 -0.56947553 -11.18267725 -15.02740668 71.98343938 -17.63666780 55.04471127 -3.58212096 -22.31881717
1357300000 -0.56697547 -11.16553210 -15.00530716 71.87614703 -17.58245337 54.75276081 -3.58472229 -22.40552475
1362290000 -0.57903469 -11.29735157 -14.98709277 71.67846311 -17.61054659 55.03807100 -3.58721812 -22.38780440
1367280000 -0.58271742 -11.30581391 -15.01250070 71.75393352 -17.54080541 54.91143219 -3.59868755 -22.43649863
1372270000 -0.59053439 -11.43030839 -15.01029415 71.48010354 -17.55328928 54.66232919 -3.60828461 -22.56735197
1377260000 -0.60125201 -11.46240782 -14.99086408 71.46799052 -17.54308588 54.73076184 -3.61578142 -22.61110092
1382250000 -0.61546132 -11.49657655 -14.96968343 71.44582365 -17.52834233 54.76611893 -3.60570752 -22.63422676
1387240000 -0.61963923 -11.55707275 -14.99071944 71.52364466 -17.49105829 54.74537387 -3.62476310 -22.63693249
1392230000 -0.61937218 -11.67904340 -14.97049594 71.41614382 -17.47115074 54.72670347 -3.62888410 -22.72668413
1397220000 -0.61112789 -11.68935597 -14.94810755 71.20578526 -17.46026736 54.75860730 -3.61975340 -22.68248196
1402210000 -0.62001107 -11.80792297 -14.93302034 71.15791623 -17.45488204 54.67802954 -3.61710467 -22.80664770
1407200000 -0.61515056 -11.87952798 -14.94470476 71.01689282 -17.40908813 54.83653848 -3.62491022 -22.91051165
1412190000 -0.61222416 -11.90319478 -14.92899393 70.95715941 -17.39671808 54.79514349 -3.61148654 -22.92068443
1417180000 -0.61228278 -11.98237285 -14.91679332 70.93981851 -17.35812566 54.74186802 -3.62352452 -22.99976589
1422170000 -0.61356197 -11.94759953 -14.89566707 70.68704186 -17.33243999 54.69971856 -3.62879698 -23.05489896
1427160000 -0.61532564 -11.90491417 -14.89966763 70.65222273 -17.31915486 54.64356314 -3.64229738 -23.12449494
1432150000 -0.61763642 -11.98879352 -14.89797011 70.49619052 -17.30783705 54.49986802 -3.63218671 -23.11726830
1437140000 -0.62422896 -11.92751862 -14.86625299 70.53357119 -17.27042208 54.57942913 -3.64641678 -23.16378634
1442130000 -0.63001124 -11.92507454 -14.87728168 70.41745921 -17.24118154 54.69134199 -3.64973562 -23.20504585
1447120000 -0.62379052 -11.94700483 -14.83960003 70.34367781 -17.22740227 54.54987146 -3.65052059 -23.32909783
1452110000 -0.62639859 -11.87010484 -14.81563969 70.34805140 -17.21208109 54.47826301 -3.66189292 -23.30366521
1457100000 -0.62936330 -11.95334907 -14.80298253 70.12999830 -17.15010084 54.37243843 -3.67571785 -23.41020979
1462090000 -0.63847347 -11.95760396 -14.78469111 70.01798486 -17.14424075 54.29575006 -3.66976058 -23.35905037
1467080000 -0.63148567 -11.95128535 -14.80029998 70.10883071 -17.15005849 54.29149901 -3.68279633 -23.49187812
1472070000 -0.64999706 -12.03484928 -14.80683712 69.95994894 -17.12684198 54.29351052 -3.68868653 -23.46338344
1477060000 -0.65753316 -12.10055479 -14.77931625 69.68936315 -17.09761856 54.30047767 -3.70121312 -23.64870889
1482050000 -0.65987289 -12.13881836 -14.77745367 69.63308822 -17.07863793 54.10423172 -3.70795194 -23.62692827
1487040000 -0.66604451 -12.22043948 -14.78006253 69.61121594 -17.08995735 54.14789374 -3.72041656 -23.67269496
1492030000 -0.66444109 -12.22824631 -14.77392962 69.54851606 -17.05570530 54.32952487 -3.71845117 -23.77421918
1497020000 -0.66968456 -12.30045619 -14.77082955 69.44538643 -17.03536085 54.33783057 -3.71895273 -23.86653644
1502010000 -0.66710726 -12.33809221 -14.75926851 69.34973614 -17.02361563 54.17473560 -3.71395336 -23.90240417
1507000000 -0.66308721 -12.38534068 -14.71910865 69.31070070 -16.96917738 54.18006693 -3.71995701 -23.94007136
1511990000 -0.66297208 -12.43904432 -14.72442960 69.24400234 -16.96149800 54.05618803 -3.72198839 -23.96137824
1516980000 -0.64975997 -12.54244521 -14.71070380 69.08004730 -16.91998411 54.15842260 -3.73075385 -24.03056828
1521970000 -0.64577312 -12.61757559 -14.69021940 68.96153144 -16.88918107 54.09593969 -3.73131506 -24.07465281
1526960000 -0.64216650 -12.57060862 -14.66022571 69.03714619 -16.88778340 54.25006937 -3.72406350 -24.12787312
1531950000 -0.64042688 -12.66365182 -14.66098750 68.87197214 -16.86302215 54.04331091 -3.72920599 -24.19628126
1536940000 -0.64899670 -12.71411297 -14.65919498 68.76007541 -16.84010662 54.04619036 -3.74330710 -24.15441992
1541930000 -0.65753073 -12.66524039 -14.64908344 68.76141777 -16.82041686 54.11676864 -3.74813376 -24.22894373
1546920000 -0.64843365 -12.71333004 -14.62301952 68.63671477 -16.80344036 53.89968926 -3.74208496 -24.29655636
1551910000 -0.66233043 -12.71291041 -14.62230180 68.41866020 -16.77119173 53.93051651 -3.76019504 -24.33807128
1556900000 -0.66274215 -12.75252804 -14.60702847 68.35340153 -16.73905992 53.82432079 -3.75044019 -24.41711693
1561890000 -0.66646735 -12.73472749 -14.58552295 68.49251984 -16.74191607 53.85934163 -3.76497680 -24.44648674
1566880000 -0.68278933 -12.69897039 -14.59355544 68.24566006 -16.72189389 53.86268713 -3.76784030 -24.47376277
1571870000 -0.66831713 -12.78751515 -14.56372527 68.12114144 -16.71735727 53.67746624 -3.78471203 -24.51857542
1576860000 -0.70061139 -12.78302616 -14.57133413 68.02781374 -16.67881369 53.89543497 -3.78038677 -24.50633840
1581850000 -0.70298008 -12.83567349 -14.56197550 67.96697284 -16.64709871 53.75134515 -3.78422893 -24.62121814
1586840000 -0.70179844 -12.83825696 -14.55874678 68.03617535 -16.62942806 53.66559379 -3.80021976 -24.66654456
1591830000 -0.71103862 -12.89911224 -14.55789862 67.99615741 -16.62269385 53.52888696 -3.79753796 -24.70613826
1596820000 -0.71074391 -12.99028606 -14.53746562 67.88457235 -16.61355218 53.58206001 -3.79597527 -24.75470793
1601810000 -0.71209883 -13.02434194 -14.52483900 67.66430563 -16.57192384 53.62469916 -3.81278598 -24.84105203
1606800000 -0.71157832 -13.13326938 -14.51828584 67.74858125 -16.57634116 53.68101450 -3.79497403 -24.84993947
1611790000 -0.70437854 -13.13386165 -14.47637465 67.62526088 -16.55130566 53.77513234 -3.81190158 -24.92498163
1616780000 -0.70539309 -13.23789313 -14.47652056 67.71508632 -16.52582369 53.44233372 -3.80898502 -24.98029393
1621770000 -0.69944501 -13.27468108 -14.48347999 67.57648994 -16.50673199 53.50150952 -3.81003993 -25.04339752
1626760000 -0.69030130 -13.27725493 -14.46109765 67.41385442 -16.49815919 53.54228187 -3.82494467 -25.08400422
1631750000 -0.69772973 -13.35073444 -14.44629284 67.38234665 -16.43254432 53.56109673 -3.81593661 -25.11141174
1636740000 -0.68683565 -13.38293663 -14.43405935 67.28415368 -16.45260748 53.48563829 -3.82049319 -25.16498147
1641730000 -0.67761013 -13.40329224 -14.42344922 67.00538402 -16.40809547 53.46842349 -3.82634646 -25.19548634
1646720000 -0.68477387 -13.48428881 -14.41028835 67.07462580 -16.42508857 53.49745008 -3.83407227 -25.17976574
1651710000 -0.68043727 -13.48587585 -14.39630256 66.80621285 -16.35378927 53.40513480 -3.84121475 -25.28608105
1656700000 -0.68043247 -13.47193827 -14.36820843 66.81517924 -16.37544604 53.44776567 -3.84736559 -25.31974477
1661690000 -0.68608244 -13.54206732 -14.38965854 66.72547450 -16.33094103 53.28923475 -3.84970865 -25.38325076
1666680000 -0.68674289 -13.54308268 -14.39017934 66.65203457 -16.31186288 53.11370808 -3.85426889 -25.37197090
1671670000 -0.69819279 -13.56238922 -14.36713359 66.46557758 -16.29148612 53.20873520 -3.87328945 -25.43861042
1676660000 -0.70458279 -13.58982505 -14.33812821 66.62352953 -16.29944707 53.23952003 -3.88068855 -25.42508600
1681650000 -0.70637690 -13.58517939 -14.33040048 66.50226961 -16.26206749 53.06807623 -3.88443465 -25.51701393
1686640000 -0.71548787 -13.66580368 -14.33389321 66.34633899 -16.24377548 53.08788334 -3.87927005 -25.62480114
1691630000 -0.72323796 -13.67435329 -14.32515349 66.31097246 -16.24331726 53.03366377 -3.89335909 -25.67697205
1696620000 -0.73417715 -13.67241779 -14.33407067 66.26315688 -16.23370037 53.18172872 -3.89688202 -25.70152112
1701610000 -0.73452049 -13.77120128 -14.31174400 66.31085580 -16.24006586 53.09989785 -3.91205080 -25.77680501
1706600000 -0.74161067 -13.80277118 -14.30253240 66.23567181 -16.18689842 53.14601761 -3.90527931 -25.81930884
1711590000 -0.74115397 -13.84986407 -14.28620932 66.19292021 -16.13665502 53.10946109 -3.91447466 -25.88857634
1716580000 -0.72822048 -13.93512685 -14.24457181 66.07316920 -16.15016087 53.18116358 -3.91316885 -25.81901605
1721570000 -0.73555108 -13.98052794 -14.28910100 65.93965807 -16.11973556 53.12401289 -3.92203296 -25.97947559
1726560000 -0.72607244 -14.02724097 -14.26482169 65.90447796 -16.11029726 52.96747827 -3.93492804 -25.98476513
1731550000 -0.71657700 -14.09798606 -14.22529533 65.92922519 -16.08898665 53.11022861 -3.91973721 -26.02553266
1736540000 -0.71703284 -14.16317665 -14.20421941 65.70487807 -16.06548289 52.86095873 -3.91572779 -26.07336743
1741530000 -0.70605842 -14.16867381 -14.20882038 65.66160845 -16.05008235 52.87324773 -3.90995131 -26.15502697
1746520000 -0.70403972 -14.25268695 -14.20463662 65.53469764 -16.01201057 52.84035216 -3.92853027 -26.10988317
1751510000 -0.70627931 -14.22047056 -14.18505432 65.40285313 -15.99553226 52.73573210 -3.93625032 -26.18320562
1756500000 -0.69795712 -14.26149739 -14.16219471 65.37715507 -16.00781116 52.68117969 -3.92738571 -26.26717361
1761490000 -0.68996984 -14.29958761 -14.15353708 65.21361689 -15.96954303 52.69536190 -3.93383361 -26.28188559
1766480000 -0.70126577 -14.30470257 -14.16000013 65.22301394 -15.95084530 52.51962670 -3.95054642 -26.30555799
1771470000 -0.71988827 -14.37071354 -14.15155045 64.97788792 -15.93366729 52.41034923 -3.96015349 -26.40250532
1776460000 -0.71191738 -14.42579483 -14.14317640 65.00502078 -15.93773244 52.35305365 -3.96058390 -26.34016655
1781450000 -0.73034736 -14.41415560 -14.13953446 65.04297854 -15.89601414 52.48268391 -3.97219146 -26.43853469
1786440000 -0.72757975 -14.48182011 -14.12291602 64.74911276 -15.89754504 52.45688251 -3.98321028 -26.54100114
1791430000 -0.74149585 -14.54841770 -14.09937662 64.68290075 -15.85972487 52.27287689 -3.98387720 -26.56659607
1796420000 -0.74594638 -14.54516232 -14.10801820 64.80489258 -15.86672998 52.32720498 -3.99769272 -26.72771178
1801410000 -0.75336370 -14.61833448 -14.10913780 64.58810131 -15.86107476 52.24728614 -3.99477693 -26.63468928
1806400000 -0.76761153 -14.59535779 -14.09122125 64.73273859 -15.82712304 52.48053247 -4.00181180 -26.79683898
1811390000 -0.76172235 -14.57994236 -14.08660816 64.75558984 -15.81357968 52.59789103 -4.00784594 -26.79142510
1816380000 -0.75601811 -14.71291987 -14.03821851 64.45031178 -15.82264416 52.46165714 -3.99914056 -26.80427274
1821370000 -0.75932458 -14.78785229 -14.04199964 64.58718983 -15.77260003 52.18107144 -4.01788910 -26.97369139
1826360000 -0.75962855 -14.78322424 -14.04031696 64.35937148 -15.75265653 52.40919170 -4.02149883 -26.93030273
1831350000 -0.75278341 -14.85484476 -14.03051122 64.36584618 -15.74725493 52.40162816 -4.00961760 -27.06837066
1836340000 -0.73634840 -14.92515289 -14.01721172 64.18124478 -15.70927262 52.15365653 -4.00869519 -27.00704439
1841330000 -0.74383305 -14.98396762 -13.99279124 64.19006033 -15.69453652 52.15751824 -4.01886157 -27.08432319
1846320000 -0.71869232 -15.07530961 -13.97499538 63.97598225 -15.67918626 52.05107235 -4.01365871 -27.15518543
1851310000 -0.71906340 -15.12473707 -13.96943029 64.03728864 -15.65237224 52.05417581 -4.01841522 -27.18033275
1856300000 -0.72120489 -15.07466610 -13.96072566 63.91031296 -15.63042846 51.97948657 -4.02608212 -27.21165132
1861290000 -0.72317225 -15.14906688 -13.95454085 63.79374706 -15.64970370 52.04546484 -4.02917637 -27.18000308
1866280000 -0.71180124 -15.17510802 -13.94379629 63.70880532 -15.59570729 51.81014142 -4.03599075 -27.16070455
1871270000 -0.71987787 -15.28631079 -13.92442237 63.48851350 -15.58016504 51.78981878 -4.03712417 -27.25798871
1876260000 -0.73045263 -15.23745376 -13.90638610 63.54385661 -15.58227625 51.64033685 -4.04387784 -27.33325133
1881250000 -0.72426478 -15.26102522 -13.91149267 63.59157922 -15.58031635 51.73795373 -4.06372007 -27.34631638
1886240000 -0.73507810 -15.34290246 -13.92828369 63.23882602 -15.57030651 51.67504552 -4.07363451 -27.41591215
1891230000 -0.73971651 -15.27799724 -13.90571314 63.45443682 -15.54498698 51.60546915 -4.06806820 -27.44776725
1896220000 -0.74795217 -15.39494457 -13.87771614 63.30706854 -15.55407861 51.71961317 -4.08466592 -27.47181921
1901210000 -0.76219109 -15.34018187 -13.88126365 63.02119696 -15.51083405 51.62552078 -4.08756445 -27.57660445
1906200000 -0.75547408 -15.44015709 -13.90206489 62.99278351 -15.51956858 51.60445751 -4.09849602 -27.63878305
1911190000 -0.75999642 -15.41085828 -13.85913049 63.01366920 -15.50859214 51.59511387 -4.10023860 -27.65780733
1916180000 -0.76759273 -15.50275174 -13.87628833 63.01993235 -15.44769316 51.71251140 -4.09986701 -27.70580133
1921170000 -0.77994180 -15.61208075 -13.85994780 62.98258794 -15.46245175 51.54779475 -4.09701062 -27.84420530
1926160000 -0.77456193 -15.59721063 -13.85719691 62.97395500 -15.42948049 51.70087000 -4.10731408 -27.85108470
1931150000 -0.77202483 -15.74021980 -13.82037625 62.88921184 -15.40419061 51.27340390 -4.09737110 -27.88848049
1936140000 -0.76160179 -15.72849702 -13.81609399 62.92956360 -15.39650440 51.40444467 -4.10682383 -28.01316551
1941130000 -0.75593724 -15.70442375 -13.80927532 62.85768998 -15.38773996 51.47982775 -4.11220243 -27.92858361
1946120000 -0.75365216 -15.82688603 -13.80593640 62.78774390 -15.39048894 51.44676544 -4.10876263 -28.02272709
1951110000 -0.73565992 -15.90548929 -13.78475587 62.61543683 -15.34645202 51.33985075 -4.11434586 -28.11967562
1956100000 -0.73218135 -15.97053982 -13.75599508 62.56190315 -15.34240781 51.38524863 -4.11527629 -28.07136857
1961090000 -0.73637253 -15.98794662 -13.76338479 62.37820509 -15.32924099 51.20496344 -4.11925596 -28.10844196
1966080000 -0.73507706 -16.09802893 -13.73883482 62.28238254 -15.30334349 51.07574600 -4.11094574 -28.11507335
1971070000 -0.72386472 -16.08848097 -13.72967463 62.07628138 -15.29183457 50.97123071 -4.13173216 -28.22494140
1976060000 -0.72735321 -16.17076974 -13.73837378 61.95909756 -15.28542162 51.05692607 -4.12338531 -28.20923338
1981050000 -0.72740447 -16.11151591 -13.70751474 62.01647517 -15.27043356 50.83502688 -4.14586066 -28.26616795
1986040000 -0.72519596 -16.07162877 -13.68138767 61.89601568 -15.22682868 51.05853085 -4.14378200 -28.27372299
1991030000 -0.73246001 -16.15830149 -13.69570406 61.83597093 -15.23975886 50.96913563 -4.15476588 -28.36841564
1996020000 -0.75920917 -16.20432055 -13.72133283 61.88468175 -15.23506735 50.78242182 -4.17201349 -28.42273302
2001010000 -0.75808689 -16.26942606 -13.70327053 61.56013527 -15.20610764 50.70617375 -4.18630276 -28.47095206
2006000000 -0.75386147 -16.25326600 -13.68147777 61.55469296 -15.18294300 50.76994152 -4.17835685 -28.49711206
2010990000 -0.75738791 -16.28780232 -13.66335313 61.75074487 -15.19858372 50.88406184 -4.17690068 -28.54578258
2015980000 -0.77877087 -16.29744109 -13.66352437 61.63364039 -15.19424671 50.71307675 -4.19620592 -28.58657333
2020970000 -0.77600168 -16.36424310 -13.64922459 61.59400397 -15.15292206 50.80125018 -4.19974216 -28.71754905
2025960000 -0.77567454 -16.37947727 -13.64891056 61.44970997 -15.14041684 50.83280205 -4.20842079 -28.79743491
2030950000 -0.78397595 -16.48976053 -13.64878098 61.37132686 -15.14209136 50.76217235 -4.21083419 -28.70723984
2035940000 -0.77149339 -16.50713209 -13.62569409 61.43286959 -15.12217024 50.59664631 -4.21218403 -28.84799501
2040930000 -0.76237588 -16.63998956 -13.63239732 61.29605218 -15.09800732 50.70127182 -4.20600061 -28.80203119
2045920000 -0.76248627 -16.64174260 -13.59399107 61.26294567 -15.07358290 50.51097468 -4.21670282 -28.94242255
2050910000 -0.76378700 -16.76616308 -13.59810058 61.13357823 -15.06269203 50.56643623 -4.21815526 -28.88738414
2055900000 -0.76815138 -16.74028169 -13.58829986 61.05564565 -15.05141320 50.58423673 -4.21121678 -28.97081150
2060890000 -0.75475543 -16.81233004 -13.58535414 60.99513556 -15.04515457 50.66025001 -4.21703775 -29.02315093
2065880000 -0.74845141 -16.90766595 -13.54083638 60.82256518 -15.00259875 50.40075713 -4.21537893 -29.02533519
2070870000 -0.73925943 -16.92118329 -13.54896053 60.70925361 -14.99651964 50.32882908 -4.22473956 -28.96734646
2075860000 -0.73679219 -16.96376755 -13.53610939 60.60009449 -14.99821539 50.31936327 -4.23321638 -29.14378861
2080850000 -0.74065830 -16.94788115 -13.52318560 60.68847289 -14.96049871 50.22265327 -4.24540297 -29.13585363
2085840000 -0.74586397 -17.01506553 -13.51748324 60.46424542 -14.96326835 50.14254153 -4.23673403 -29.10890065
2090830000 -0.74262566 -16.99216485 -13.51007338 60.46090105 -14.94023887 49.95564376 -4.24854435 -29.14756415
2095820000 -0.75546393 -17.01951692 -13.49798995 60.44327236 -14.96331725 50.09151294 -4.25057416 -29.18371616
2100810000 -0.76325322 -17.02967863 -13.49818040 60.35737319 -14.90093047 50.05271763 -4.25117612 -29.33094777
2105800000 -0.79160134 -17.10144432 -13.53382090 60.21142518 -14.90421764 49.91498664 -4.27152196 -29.31864327
2110790000 -0.78045571 -17.07040802 -13.49545990 60.17098327 -14.92634004 50.00307245 -4.28166089 -29.36465946
2115780000 -0.79018162 -17.15565199 -13.49773358 60.13802224 -14.89526076 49.90582094 -4.28525147 -29.38943536
2120770000 -0.78220377 -17.14663642 -13.48044673 60.07304727 -14.87301659 49.95920820 -4.28605052 -29.51565152
2125760000 -0.79528978 -17.25566942 -13.46202572 60.15479442 -14.86673940 49.93168323 -4.29844325 -29.52801250
2130750000 -0.79951343 -17.27497131 -13.46670481 60.02802947 -14.85334378 49.97158604 -4.29166006 -29.64155495
2135740000 -0.80148254 -17.33272902 -13.45933170 60.02515695 -14.84271245 49.93058892 -4.29922747 -29.77450112
2140730000 -0.78566749 -17.36779150 -13.42800198 59.82423539 -14.83388594 49.87537964 -4.31134738 -29.72653562
2145720000 -0.79633943 -17.42182172 -13.43796679 59.87952692 -14.81538418 49.95014907 -4.29510794 -29.84389271
2150710000 -0.78559605 -17.52939729 -13.41252718 60.00174315 -14.80482737 49.74145874 -4.30052396 -29.82774652
2155700000 -0.78311372 -17.51011297 -13.40129352 59.79275079 -14.78010148 49.81831129 -4.31030220 -29.83587807
2160690000 -0.77334481 -17.58278875 -13.38005937 59.65649139 -14.75978191 49.73447595 -4.31791585 -29.85055995
2165680000 -0.76849300 -17.72284522 -13.38704497 59.55253104 -14.73940083 49.63737899 -4.30641631 -29.87301348
2170670000 -0.76979611 -17.75271133 -13.36338045 59.51923635 -14.74995178 49.62420440 -4.31947255 -29.90551977
2175660000 -0.75354588 -17.76940519 -13.36962514 59.43056504 -14.72132937 49.63225599 -4.31923382 -29.97511094
2180650000 -0.75342131 -17.76596674 -13.34219238 59.11017569 -14.71170762 49.41029525 -4.33265631 -30.03800245
2185640000 -0.75580566 -17.86338911 -13.32880061 59.37871233 -14.69473536 49.53856324 -4.32688093 -29.96301966
2190630000 -0.75986770 -17.86281477 -13.34089468 59.16229396 -14.68651660 49.22392683 -4.35179666 -30.10678997
2195620000 -0.76498017 -17.89200351 -13.33841912 59.01737857 -14.66466052 49.26917007 -4.36175230 -30.20371361
2200610000 -0.76671822 -17.92371354 -13.31921746 58.88564592 -14.68507095 49.27062925 -4.35089222 -30.11888282
2205600000 -0.79084777 -17.93061374 -13.33462907 58.89355121 -14.63899844 49.19226145 -4.36072989 -30.17801537
2210590000 -0.78181797 -17.92807567 -13.30707564 58.85076798 -14.65393365 49.21563294 -4.37728658 -30.23481478
2215580000 -0.79307001 -17.94287535 -13.31981131 58.78584296 -14.65421990 49.10813673 -4.37143337 -30.26134716
2220570000 -0.81357510 -17.92076123 -13.32213926 58.91443416 -14.65555399 49.05490625 -4.38298532 -30.34872875
2225560000 -0.81541176 -18.06297432 -13.29787441 58.63456705 -14.61628656 49.09817844 -4.39878862 -30.36512824
2230550000 -0.82133814 -18.07072768 -13.29204757 58.61780093 -14.63197265 49.05458143 -4.40078529 -30.42765091
2235540000 -0.81982848 -18.11541431 -13.28468871 58.73089949 -14.58124615 49.06319871 -4.40493606 -30.51271901
2240530000 -0.82185399 -18.09233561 -13.27379438 58.54354422 -14.57236533 49.12382068 -4.40490640 -30.54019290
2245520000 -0.82115495 -18.17951295 -13.26246040 58.53237202 -14.55620631 49.11100523 -4.40824831 -30.63212277
2250510000 -0.82111024 -18.22853274 -13.26120851 58.44302360 -14.56798911 48.98639660 -4.40464142 -30.59420651
2255500000 -0.81828074 -18.33087722 -13.23136098 58.34198398 -14.55401046 49.02476408 -4.40889695 -30.62803378
2260490000 -0.81641131 -18.37491779 -13.23819026 58.34158829 -14.52227805 48.93348428 -4.40367784 -30.75142189
2265480000 -0.80634413 -18.49511087 -13.22631320 58.38586466 -14.50598945 48.86408799 -4.41059723 -30.86449966
2270470000 -0.80151555 -18.45640168 -13.20248384 58.26030871 -14.50448969 48.77693236 -4.41979662 -30.76987348
2275460000 -0.79741260 -18.55092135 -13.19478634 58.17121443 -14.48697195 48.72879847 -4.41378405 -30.79910861
2280450000 -0.79600083 -18.61295000 -13.17846510 57.92056356 -14.47293700 48.67056739 -4.40451063 -30.87017907
2285440000 -0.79534115 -18.61493151 -13.18948303 57.86722008 -14.44153616 48.65197626 -4.42997352 -30.84747822
2290430000 -0.78868291 -18.61814718 -13.19443370 57.79779922 -14.43460610 48.61893231 -4.42061869 -30.89862989
2295420000 -0.79516504 -18.68679715 -13.14828990 57.92142585 -14.44212641 48.59406138 -4.44309098 -30.92844822
2300410000 -0.80323585 -18.64241848 -13.18544953 57.71131148 -14.42210866 48.42527197 -4.44516552 -30.90960417
2305400000 -0.80854766 -18.70989012 -13.13666458 57.59996240 -14.42618148 48.39103946 -4.44961788 -30.98337874
2310390000 -0.81101986 -18.66172087 -13.16012276 57.51897910 -14.41789658 48.26964775 -4.45582788 -30.97038612
2315380000 -0.83260568 -18.69763051 -13.15993561 57.37247541 -14.43512253 48.24295006 -4.46345973 -31.06234043
2320370000 -0.83637152 -18.76079941 -13.12126504 57.32870970 -14.40802725 48.27214592 -4.47482460 -31.14676990
2325360000 -0.84185073 -18.69969252 -13.14777394 57.42984569 -14.39142367 48.36743674 -4.47471867 -31.23933792
2330350000 -0.85054651 -18.79155529 -13.12777576 57.38090165 -14.39193034 48.09828006 -4.48138213 -31.19576210
2335340000 -0.85562678 -18.74672308 -13.12836911 57.34947816 -14.37326922 48.27835408 -4.48506486 -31.35273198
2340330000 -0.86035487 -18.78568109 -13.12752555 57.35527273 -14.38040488 48.17840621 -4.49282944 -31.40815940
2345320000 -0.85980416 -18.74509350 -13.11963442 57.33342487 -14.35184960 48.20640268 -4.50239900 -31.39648664
2350310000 -0.86244156 -18.83979782 -13.10265113 57.33145713 -14.33475864 48.15769432 -4.49914206 -31.43257780
2355300000 -0.85474639 -18.90759603 -13.07943315 57.17323638 -14.34738907 48.30938382 -4.49980924 -31.49849632
2360290000 -0.85320687 -18.99617202 -13.09211319 57.23419793 -14.27971059 48.13278235 -4.50672197 -31.46432094
2365280000 -0.85647850 -19.05326632 -13.07809317 56.99617998 -14.29615894 48.08381204 -4.50027985 -31.59314458
2370270000 -0.84473320 -19.09080085 -13.05048700 57.19589367 -14.28363388 48.17646577 -4.49812727 -31.62381886
2375260000 -0.83688130 -19.17094852 -13.07006010 56.98363077 -14.26223894 48.07922940 -4.51302179 -31.65706861
2380250000 -0.83558784 -19.22352649 -13.04179492 56.87686564 -14.26913561 47.84353374 -4.51031378 -31.64882012
2385240000 -0.83692095 -19.28853387 -13.03120468 56.63891581 -14.22043087 47.88589665 -4.51047408 -31.70004939
2390230000 -0.83483112 -19.25334547 -13.03961053 56.69910455 -14.23105639 47.93323694 -4.52358377 -31.64360418
2395220000 -0.82526864 -19.34814896 -13.01775319 56.52357907 -14.19855902 47.81047482 -4.53206604 -31.76426868
2400210000 -0.84135726 -19.40932925 -13.01728958 56.53875462 -14.21234460 47.86829022 -4.53086082 -31.78085973
2405200000 -0.83429606 -19.38317618 -13.01495517 56.51977106 -14.18927844 47.68210110 -4.53535421 -31.72650255
2410190000 -0.83635625 -19.38357496 -13.01656176 56.33808764 -14.20513671 47.74932789 -4.53222951 -31.86514854
2415180000 -0.85057681 -19.36402293 -12.99661349 56.46949422 -14.18039710 47.60754530 -4.56166093 -31.86626937
2420170000 -0.85631797 -19.40976673 -12.98378506 56.34674392 -14.16580289 47.61263184 -4.54435225 -31.91102514
2425160000 -0.85903642 -19.45878027 -12.99971252 56.23368360 -14.18542799 47.46984617 -4.57016735 -31.97164152
2430150000 -0.88260552 -19.40074782 -12.98989725 56.08155971 -14.15786207 47.53878522 -4.57958020 -32.04819488
2435140000 -0.88459432 -19.40852366 -12.96101582 56.06532385 -14.15354040 47.53455996 -4.56863488 -32.04353397
2440130000 -0.89997241 -19.40118644 -12.98580415 56.18607844 -14.13122241 47.55472848 -4.58862073 -32.13849283
2445120000 -0.90451761 -19.48185744 -12.97437907 56.02586701 -14.12727744 47.32861120 -4.57961258 -32.17167346
2450110000 -0.90004111 -19.49328176 -12.95703004 56.20458191 -14.11435303 47.47888254 -4.58147825 -32.20117287
2455100000 -0.89840502 -19.50299038 -12.95880914 56.08940181 -14.11777321 47.44769996 -4.58702374 -32.24359800
2460090000 -0.89554608 -19.53295489 -12.93418035 55.91312915 -14.11084857 47.53741555 -4.59524392 -32.27579310
2465080000 -0.90102564 -19.60240369 -12.92745726 55.89770578 -14.08211240 47.26246324 -4.59298578 -32.32454123
2470070000 -0.90228778 -19.69159780 -12.92130865 55.90475216 -14.07501472 47.34210802 -4.58826242 -32.32692208
2475060000 -0.89284252 -19.74245682 -12.92314810 55.68291454 -14.08168338 47.33653602 -4.60305216 -32.46026271
2480050000 -0.88987729 -19.80433020 -12.87011540 55.76837807 -14.04877765 47.24135805 -4.59461295 -32.45170927
2485040000 -0.88124057 -19.83873465 -12.89188008 55.57982439 -14.01049774 47.24469299 -4.59255688 -32.46451405
2490030000 -0.88686546 -19.91324192 -12.88371008 55.51191035 -14.03086268 47.03147850 -4.60730513 -32.47267181
2495020000 -0.89304785 -19.90739807 -12.86755345 55.39262967 -14.00291597 47.16811080 -4.60155028 -32.57745882
2500010000 -0.88070740 -19.99071134 -12.87008124 55.37220228 -14.00800637 47.03493196 -4.60807064 -32.51581723
2505000000 -0.88185831 -20.01663663 -12.86468570 55.20470190 -13.99647456 47.12145672 -4.63043777 -32.54764074
2509990000 -0.88449505 -19.97068426 -12.85015198 55.39976339 -14.00487204 47.05028830 -4.62626749 -32.62120831
2514980000 -0.89136234 -19.97744487 -12.85803934 55.21418700 -14.01560019 46.89052420 -4.62984933 -32.62383377
2519970000 -0.89789717 -19.96686913 -12.83534558 55.03187916 -13.97755311 46.86006941 -4.64222139 -32.70636457
2524960000 -0.89987356 -20.04607981 -12.83647848 55.05801443 -13.98578375 46.74013606 -4.63918095 -32.70909073
2529950000 -0.91389062 -20.00803587 -12.83233607 54.97435640 -13.95861618 46.72808152 -4.66494183 -32.76932570
2534940000 -0.92751576 -19.96936189 -12.81860551 55.03488820 -13.92696348 46.75203799 -4.65976751 -32.86755730
2539930000 -0.93854011 -20.06493174 -12.81464035 54.87906569 -13.94397770 46.67757852 -4.66872018 -32.86896137
2544920000 -0.95011391 -20.05531985 -12.84526504 54.79156180 -13.94495318 46.64175234 -4.66624136 -32.89384978
2549910000 -0.95380363 -20.07034708 -12.83539769 54.85120975 -13.93470656 46.71330973 -4.67498872 -33.02135611
2554900000 -0.95473654 -20.05161162 -12.80868351 54.75953613 -13.90814410 46.70747093 -4.68836024 -33.05316192
2559890000 -0.95486955 -20.12496900 -12.81509511 54.75252969 -13.92118972 46.65629062 -4.67603879 -33.09197625
2564880000 -0.96747050 -20.08846861 -12.82149328 54.80983352 -13.89560894 46.66972974 -4.67658183 -33.16055951
2569870000 -0.96107995 -20.16127546 -12.81978124 54.69219787 -13.89696709 46.66970186 -4.69481549 -33.18362320
2574860000 -0.95145509 -20.23894909 -12.76735465 54.52831063 -13.87603605 46.67357473 -4.67996718 -33.28981162
2579850000 -0.95615583 -20.29571071 -12.76932087 54.66844016 -13.87263169 46.72384117 -4.68147916 -33.29647319
2584840000 -0.94860592 -20.35165522 -12.77217459 54.66520124 -13.85048637 46.48830257 -4.68633881 -33.24532271
2589830000 -0.93722295 -20.45565864 -12.76029186 54.44766593 -13.82938958 46.50066582 -4.68574991 -33.31172400
2594820000 -0.94034532 -20.46567361 -12.76671046 54.54473503 -13.83231643 46.57183614 -4.68695323 -33.26847240
2599810000 -0.93668171 -20.48423264 -12.73490680 54.53734867 -13.82138304 46.44640223 -4.70232561 -33.36700573
2604800000 -0.93077094 -20.47129432 -12.73324123 54.44166720 -13.81140233 46.32082962 -4.71640492 -33.33614661
2609790000 -0.94193643 -20.54416381 -12.70919883 54.26939121 -13.80268585 46.23872862 -4.70014782 -33.40032443
2614780000 -0.94069019 -20.58276443 -12.71548777 54.21316165 -13.80644382 46.35950942 -4.71188427 -33.34661511
2619770000 -0.94494002 -20.61660771 -12.72003151 54.06510378 -13.77465661 46.13961640 -4.71580450 -33.37041249
2624760000 -0.95345408 -20.56824612 -12.70553571 53.98473652 -13.77337751 46.15842057 -4.72554174 -33.48851393
2629750000 -0.95385332 -20.56109454 -12.71277013 53.96842381 -13.76351815 46.19002956 -4.73530971 -33.54402659
2634740000 -0.97182656 -20.62548297 -12.70511058 53.92732436 -13.76485482 46.03728120 -4.74496039 -33.54215592
2639730000 -0.98539938 -20.56996043 -12.70607714 53.84101116 -13.76820604 46.10446136 -4.75945014 -33.61813409
2644720000 -0.98791359 -20.53956926 -12.69491748 53.90273498 -13.74819068 46.10800945 -4.76746206 -33.62603461
2649710000 -0.98921888 -20.57964943 -12.69211502 53.79260719 -13.73913832 46.11098407 -4.76143325 -33.69528002
2654700000 -1.01039398 -20.61457888 -12.68250535 53.72260611 -13.74068398 46.02070094 -4.76685286 -33.76646808
2659690000 -1.00724458 -20.62005903 -12.68983195 53.71973602 -13.72155922 46.02674725 -4.77873284 -33.86862834
2664680000 -1.01477376 -20.59897489 -12.68392481 53.74618165 -13.72567859 46.02683481 -4.76909566 -33.92451424
2669670000 -1.01299676 -20.67363905 -12.66491521 53.73789701 -13.69736785 45.97953081 -4.77213920 -33.93382308
2674660000 -1.01677989 -20.67419003 -12.64601467 53.77581043 -13.69854648 46.09779572 -4.77555880 -33.93597172
2679650000 -1.01640451 -20.73456256 -12.67833048 53.65617183 -13.69896051 45.85980638 -4.78488816 -33.95210612
2684640000 -1.01164938 -20.84293625 -12.63425659 53.53252994 -13.67832942 45.89519093 -4.77554593 -34.08142198
2689630000 -0.99717926 -20.90045272 -12.62790168 53.53262850 -13.66232716 45.92925879 -4.79061366 -34.08422228
2694620000 -1.00624167 -20.94185242 -12.61712609 53.50547740 -13.65644460 45.81175454 -4.78536459 -34.12165670
2699610000 -1.00239498 -20.90243902 -12.62109582 53.44327565 -13.64682359 45.81173159 -4.76895491 -34.16556813
2704600000 -1.00115917 -20.96570100 -12.61352896 53.52529482 -13.61859142 45.67109823 -4.78301849 -34.09830373
2709590000 -0.99646591 -21.02805687 -12.60933127 53.23904873 -13.62327103 45.80004872 -4.79252631 -34.13609881
2714580000 -0.98035933 -21.04695062 -12.58977708 53.29119140 -13.62181798 45.62257692 -4.80050381 -34.16770307
2719570000 -0.98943784 -21.07037891 -12.57023386 53.17358022 -13.62580820 45.64159965 -4.80821374 -34.23911680
2724560000 -0.99157449 -21.07882989 -12.59195337 53.07193064 -13.59680206 45.67208861 -4.80854778 -34.25857227
2729550000 -1.00163736 -21.10154475 -12.58333887 53.02780564 -13.57408512 45.46872486 -4.81739285 -34.20652246
2734540000 -1.02177931 -21.03907886 -12.60202994 53.00925854 -13.59939033 45.46156952 -4.83579947 -34.28122460
2739530000 -1.01910436 -20.96374836 -12.56966906 53.17036476 -13.58139674 45.58856888 -4.82843049 -34.36092867
2744520000 -1.02500344 -21.09151075 -12.56200183 52.82595887 -13.56213906 45.48541105 -4.84105874 -34.41239445
2749510000 -1.03041503 -21.06408717 -12.56052442 52.87539708 -13.55110340 45.51792397 -4.84374597 -34.44313426
2754500000 -1.05160814 -21.03732269 -12.55719014 52.89261153 -13.55232773 45.30226084 -4.83874212 -34.52518150
2759490000 -1.05106755 -21.10819960 -12.55064079 52.74104475 -13.53791326 45.35019974 -4.84198517 -34.57100598
2764480000 -1.06424620 -21.06882622 -12.55130350 52.75586473 -13.56195542 45.48275187 -4.86932664 -34.61699811
2769470000 -1.07388529 -21.09999339 -12.53854767 52.65073580 -13.52776293 45.22056115 -4.86743231 -34.69374939
2774460000 -1.07655349 -21.19425973 -12.53812023 52.76724127 -13.52284218 45.29327206 -4.87175386 -34.73782467
2779450000 -1.07660491 -21.20251720 -12.51742215 52.63044763 -13.52291782 45.44920561 -4.87201149 -34.81227192
2784440000 -1.08399688 -21.26640621 -12.50866952 52.53900822 -13.52625756 45.30860434 -4.86595856 -34.78759563
2789430000 -1.07421140 -21.26239112 -12.53738110 52.67726386 -13.50748841 45.28945593 -4.86472974 -34.85262123
2794420000 -1.05944246 -21.36590534 -12.49857402 52.48713729 -13.49009935 45.21977487 -4.85920204 -34.83914255
2799410000 -1.06581986 -21.39010363 -12.47738981 52.59146193 -13.46988978 45.25168601 -4.86754956 -34.77918330
2804400000 -1.05765139 -21.45480501 -12.47747143 52.46597837 -13.45122830 45.13027614 -4.86746588 -34.92346707
2809390000 -1.06017625 -21.49672311 -12.47327433 52.35297915 -13.46103147 45.18446523 -4.88274858 -34.93075717
2814380000 -1.05927960 -21.51155668 -12.47067104 52.29905807 -13.45153593 45.05823073 -4.89252856 -34.92152335
2819370000 -1.06352595 -21.48934733 -12.47684575 52.29907660 -13.45047061 45.10426541 -4.87700825 -34.94951708
2824360000 -1.06135526 -21.59866362 -12.46915338 52.06384303 -13.41596816 44.93929260 -4.89269869 -34.95235574
2829350000 -1.05858841 -21.57620714 -12.45288797 52.04584561 -13.42631095 44.92942493 -4.89166566 -34.99317120
2834340000 -1.05918089 -21.57076785 -12.45322907 52.14733980 -13.42425912 44.76749515 -4.90006205 -35.05759601
2839330000 -1.07265845 -21.58891424 -12.46023722 51.99038006 -13.41311979 44.97386680 -4.91636974 -35.03399361
2844320000 -1.06252229 -21.53781576 -12.43830853 52.02651614 -13.41464798 44.86269097 -4.91711591 -35.06580589
2849310000 -1.08241415 -21.55018987 -12.43427534 52.04355425 -13.40489098 44.76795038 -4.92180898 -35.08942559
2854300000 -1.09696490 -21.52783815 -12.45332792 51.86898502 -13.40675425 44.74097323 -4.94413725 -35.21276534
2859290000 -1.10591924 -21.58570219 -12.45355204 51.78763099 -13.39868268 44.79780516 -4.93984447 -35.24296077
2864280000 -1.10646053 -21.58273804 -12.44375694 51.94545369 -13.38925406 44.77918519 -4.95134668 -35.36218202
2869270000 -1.11163193 -21.61951711 -12.44695004 51.79784049 -13.37715800 44.73692052 -4.95249758 -35.31617760
2874260000 -1.11862325 -21.58597695 -12.42125547 51.77235967 -13.38362990 44.79495975 -4.95114195 -35.37660066
2879250000 -1.12973235 -21.65616199 -12.41885672 51.80441800 -13.36901915 44.72576710 -4.97293943 -35.50891869
2884240000 -1.13759510 -21.73195101 -12.42154985 51.75747864 -13.36860816 44.74316960 -4.95152918 -35.49365728
2889230000 -1.14031910 -21.73728715 -12.39467593 51.74471168 -13.33225650 44.58654169 -4.95255340 -35.44790897
2894220000 -1.12517568 -21.74862227 -12.37826603 51.82531229 -13.32188728 44.73828426 -4.96712875 -35.63389624
2899210000 -1.12667763 -21.81202945 -12.37825309 51.60242516 -13.31454635 44.60242013 -4.95589428 -35.61675859
2904200000 -1.12739347 -21.85380058 -12.38343771 51.59416451 -13.31828696 44.67083049 -4.96039097 -35.63846554
2909190000 -1.12449732 -21.84639900 -12.36662668 51.52834978 -13.29754840 44.64039427 -4.96764805 -35.72688322
2914180000 -1.12296234 -21.97156583 -12.34548456 51.48375589 -13.29784241 44.60594699 -4.97128335 -35.66702597
2919170000 -1.11136196 -21.96937254 -12.33108897 51.54336796 -13.29865871 44.54290037 -4.96930315 -35.73927601
2924160000 -1.11024931 -22.04021779 -12.35793660 51.40349471 -13.27481769 44.48166352 -4.97889879 -35.77262686
2929150000 -1.12925782 -22.07178830 -12.34809184 51.47292225 -13.27018614 44.33749219 -4.97381567 -35.70675342
2934140000 -1.11919096 -22.07459246 -12.34173919 51.30462958 -13.28817430 44.39029367 -4.98378482 -35.76701508
2939130000 -1.11131076 -22.04326526 -12.33476611 51.19908964 -13.26203813 44.36390221 -4.98552960 -35.73193105
2944120000 -1.11893078 -22.06360032 -12.31655626 51.24360001 -13.25442702 44.28250662 -5.01110619 -35.71287136
2949110000 -1.12545328 -22.06437703 -12.34987926 51.06708007 -13.24374870 44.40228338 -5.00003876 -35.79065605
2954100000 -1.14148174 -21.99497281 -12.32400755 51.23433912 -13.25674684 44.44632911 -5.01531454 -35.89666605
2959090000 -1.13712871 -22.09187836 -12.33974512 51.08233233 -13.24405180 44.32965115 -5.02597006 -35.91530660
2964080000 -1.14573220 -22.04022061 -12.30498595 51.14413922 -13.23862316 44.21668789 -5.02955331 -36.01530029
2969070000 -1.15885003 -22.04345143 -12.29012676 51.02817767 -13.23444532 44.34150732 -5.03632249 -36.01873115
2974060000 -1.17687283 -22.03436695 -12.29402590 51.05665374 -13.24194978 44.28811555 -5.03716803 -36.02386526
2979050000 -1.17368694 -22.11368952 -12.31249657 50.97196649 -13.21093303 44.39594437 -5.04908948 -36.15268858
2984040000 -1.17728002 -22.21767297 -12.27685727 50.89718400 -13.19343843 44.11381926 -5.04181144 -36.17223251
2989030000 -1.19015206 -22.14632707 -12.27497861 50.93031847 -13.19169097 44.25205997 -5.05698625 -36.16741689
2994020000 -1.18635387 -22.19752993 -12.27963556 50.93880010 -13.19237157 44.22314525 -5.06763765 -36.24320980
2999010000 -1.18997744 -22.27351465 -12.26447457 50.85216646 -13.16157502 44.22648026 -5.05396656 -36.32872364
3004000000 -1.19472138 -22.29162516 -12.27078583 50.87605532 -13.14571539 44.06906913 -5.04928127 -36.31823723
3008990000 -1.18996452 -22.39854062 -12.24620340 50.77180006 -13.14479666 44.06632731 -5.05669003 -36.31964620
3013980000 -1.18357213 -22.45651042 -12.23681691 50.63214168 -13.13724505 44.10952768 -5.06379406 -36.38781537
3018970000 -1.17661266 -22.46631011 -12.23899460 50.65911904 -13.14506613 44.01532610 -5.06002383 -36.36994930
3023960000 -1.17858169 -22.45887304 -12.20980492 50.74685690 -13.11724734 44.04729572 -5.06618792 -36.39185949
3028950000 -1.17368682 -22.58428274 -12.19239136 50.59907660 -13.11523918 44.06377136 -5.06546251 -36.43756164
3033940000 -1.17995216 -22.53931498 -12.21953425 50.64010676 -13.11809531 43.85369269 -5.08254786 -36.42879691
3038930000 -1.16500870 -22.56463070 -12.21372932 50.55477082 -13.10287856 43.90178601 -5.08035207 -36.47241319
3043920000 -1.17009823 -22.61794026 -12.20638496 50.34419513 -13.08638377 43.88998736 -5.09565406 -36.48032944
3048910000 -1.17432527 -22.55479166 -12.21055434 50.51754451 -13.09078963 43.86344179 -5.09336047 -36.39343058
3053900000 -1.17694887 -22.51796660 -12.19797393 50.31305115 -13.09895428 43.83814327 -5.10581049 -36.58127177
3058890000 -1.18212075 -22.55163770 -12.19563751 50.46762049 -13.07351679 43.85853298 -5.10043654 -36.54311808
3063880000 -1.19074427 -22.56360124 -12.17400234 50.30503621 -13.06097596 43.79677690 -5.09269201 -36.61623717
3068870000 -1.18799099 -22.54721920 -12.18131156 50.25850952 -13.07305386 43.80200182 -5.11823035 -36.62692567
3073860000 -1.21158033 -22.56495948 -12.16968621 50.33503254 -13.05537358 43.70318742 -5.10921846 -36.64660231
3078850000 -1.22119346 -22.56963706 -12.17060526 50.33285018 -13.03641467 43.81756932 -5.11424916 -36.70051934
3083840000 -1.22423668 -22.58856033 -12.15471256 50.15945890 -13.04221138 43.74705550 -5.12764221 -36.71591595
3088830000 -1.22723711 -22.64913098 -12.15236107 50.16628041 -13.03298277 43.67564439 -5.13537444 -36.82295068
3093820000 -1.23343878 -22.60134564 -12.14127157 50.22144171 -13.02083405 43.75514980 -5.13228598 -36.85348836
3098810000 -1.23590544 -22.73289676 -12.15772309 50.05285898 -13.01214536 43.65580327 -5.14054002 -36.90637539
3103800000 -1.24342199 -22.75985513 -12.13701935 50.11492851 -13.02429228 43.67128186 -5.13837884 -37.02736840
3108790000 -1.23549724 -22.84260990 -12.12445353 50.16204140 -12.99659038 43.54994380 -5.14605301 -36.96906787
3113780000 -1.24392526 -22.87594667 -12.12702888 50.06964978 -12.98295027 43.60622492 -5.15281802 -37.06372253
3118770000 -1.23644166 -22.92670292 -12.11368045 49.98729266 -12.98227978 43.55052177 -5.14987951 -37.06213899
3123760000 -1.21798625 -23.00232354 -12.11727607 49.90332736 -12.97167603 43.68142785 -5.13732802 -37.07587579
3128750000 -1.21993464 -23.02577508 -12.09972428 49.79496718 -12.96669442 43.43544777 -5.15227444 -37.11605147
3133740000 -1.21972802 -23.10251122 -12.08609731 49.71443728 -12.95357433 43.48671837 -5.15380845 -37.12975951
3138730000 -1.22642265 -23.12985574 -12.10210978 49.72642578 -12.95573608 43.32403127 -5.15330790 -37.15546321
3143720000 -1.21916882 -23.12203173 -12.09714047 49.62516496 -12.93710201 43.37760861 -5.14767263 -37.13597406
3148710000 -1.21612500 -23.08889723 -12.07063586 49.62653876 -12.92929087 43.36510001 -5.16461493 -37.18687174
3153700000 -1.22310560 -23.15707862 -12.08659238 49.54180784 -12.93535991 43.25994303 -5.17115316 -37.20968476
3158690000 -1.21835350 -23.14335729 -12.06508226 49.65689429 -12.93315559 43.41041301 -5.16723407 -37.24830878
3163680000 -1.23195314 -23.09884603 -12.05545792 49.57738411 -12.92018222 43.18771012 -5.17098621 -37.23655348
3168670000 -1.23845304 -23.16877694 -12.03929948 49.49955469 -12.89776818 43.24026093 -5.18881856 -37.32517132
3173660000 -1.23889494 -23.11655744 -12.05546858 49.36450224 -12.90694827 43.11882220 -5.19618683 -37.37414105
3178650000 -1.24629397 -23.17606270 -12.05581310 49.40179025 -12.90378088 43.31423922 -5.21053122 -37.29482130
3183640000 -1.25487734 -23.11109435 -12.04050214 49.41552280 -12.89977628 43.21576113 -5.20253289 -37.47665933
3188630000 -1.26381206 -23.13491424 -12.05538276 49.41004484 -12.87317026 43.24957293 -5.20327086 -37.47156557
3193620000 -1.27629142 -23.21454049 -12.04180717 49.34523393 -12.88321881 42.99728287 -5.22034669 -37.53825019
3198610000 -1.26668644 -23.23261113 -12.02894860 49.41248777 -12.86323586 43.18653747 -5.21826273 -37.51749534
3203600000 -1.27694914 -23.31032718 -12.02255629 49.28497455 -12.87391116 43.06603483 -5.22432561 -37.55680335
3208590000 -1.28415914 -23.37664354 -12.01234421 49.17696957 -12.84868577 43.10987836 -5.22192651 -37.61163053
3213580000 -1.28476863 -23.38503894 -11.99953295 49.23683842 -12.84596947 42.95484967 -5.21991251 -37.71711561
3218570000 -1.27276078 -23.54183160 -12.01808015 49.03737210 -12.83228308 42.98155542 -5.23413953 -37.60433143
3223560000 -1.28510722 -23.51984201 -11.99056281 49.07527965 -12.84226225 43.10266457 -5.24183594 -37.69424728
3228550000 -1.28131827 -23.63836282 -11.99054000 49.10565757 -12.82379872 43.04540210 -5.23359430 -37.68947248
3233540000 -1.27446193 -23.63515835 -11.96168211 48.91441877 -12.80581153 42.94505280 -5.23497319 -37.82031501
3238530000 -1.27182129 -23.67589430 -11.97470938 48.91742185 -12.79321984 42.96984093 -5.23372071 -37.80701378
3243520000 -1.27028526 -23.74382042 -11.95788286 48.97082543 -12.79136978 42.78568713 -5.24226890 -37.87949090
3248510000 -1.26643420 -23.78304359 -11.95214729 48.93234348 -12.78780765 42.80204171 -5.23900042 -37.90067716
3253500000 -1.26769530 -23.76190381 -11.94209075 48.83532261 -12.77225598 42.82652037 -5.25432338 -37.83660879
3258490000 -1.25594918 -23.77087013 -11.94437106 48.75615448 -12.77234920 42.65806157 -5.26619307 -37.97566624
3263480000 -1.26013098 -23.78476675 -11.95464124 48.81721250 -12.76425957 42.84895256 -5.25943192 -37.91282961
3268470000 -1.27353315 -23.79365045 -11.93727054 48.63625294 -12.76647074 42.60306674 -5.27321905 -37.88400006
3273460000 -1.26911840 -23.81742918 -11.92571469 48.74282178 -12.75645545 42.65759610 -5.27253463 -37.99203811
3278450000 -1.28387204 -23.77251596 -11.91308991 48.59717192 -12.75141136 42.79227337 -5.27466725 -37.97016485
3283440000 -1.29115156 -23.77871138 -11.93268095 48.49928762 -12.74581334 42.44667638 -5.28981738 -38.02899903
3288430000 -1.29464727 -23.76283301 -11.91437522 48.62237254 -12.75223935 42.58591514 -5.29305235 -38.05630513
3293420000 -1.30400422 -23.75761710 -11.92651170 48.57796462 -12.73022448 42.67119568 -5.29873979 -38.05209153
3298410000 -1.30881838 -23.87657104 -11.89602032 48.42317947 -12.71715736 42.60904235 -5.30270827 -38.18222455
3303400000 -1.31623131 -23.92538380 -11.90427675 48.44885438 -12.71850888 42.65269140 -5.31039716 -38.19037996
3308390000 -1.32361462 -23.88411247 -11.90143223 48.48402688 -12.70042070 42.59696162 -5.29904767 -38.15946000
3313380000 -1.32209450 -24.01511513 -11.90791167 48.43664247 -12.70072195 42.52774247 -5.30566572 -38.30603513
3318370000 -1.32309707 -24.05245215 -11.87666775 48.30464479 -12.69992782 42.51210917 -5.32635386 -38.30942297
3323360000 -1.32981791 -24.16920209 -11.87985214 48.22998478 -12.67615419 42.44271053 -5.32438581 -38.25553789
3328350000 -1.32378052 -24.17569086 -11.88188035 48.34047111 -12.68169020 42.42129203 -5.32592719 -38.30055230
3333340000 -1.31548335 -24.26088235 -11.87324970 48.18757634 -12.65579386 42.34783382 -5.32615944 -38.46002333
3338330000 -1.31282746 -24.29013488 -11.85474645 48.16398138 -12.65367424 42.31029142 -5.32069266 -38.42038820
3343320000 -1.31225449 -24.42232388 -11.85958771 48.04764655 -12.64369291 42.26521855 -5.32537386 -38.41623991
3348310000 -1.30392010 -24.42074115 -11.85057210 48.10980880 -12.64745011 42.31729755 -5.31849043 -38.42583514
3353300000 -1.31482362 -24.44507177 -11.84251813 47.97264006 -12.64868297 42.18661440 -5.33687563 -38.45729083
3358290000 -1.31191386 -24.45464235 -11.85468197 48.00821866 -12.63490855 42.15950339 -5.33549015 -38.44670797
3363280000 -1.30679018 -24.43750191 -11.82730497 48.02968296 -12.63210459 42.24103761 -5.34366825 -38.48978219
3368270000 -1.30481262 -24.55467716 -11.82806927 47.81394671 -12.60844907 42.15273260 -5.35348700 -38.55895538
3373260000 -1.30607554 -24.48990631 -11.81704889 47.81763559 -12.62137537 42.00177359 -5.35576492 -38.55792419
3378250000 -1.31116204 -24.53015919 -11.82849819 47.75017089 -12.61506860 42.01183244 -5.36495095 -38.54579463
3383240000 -1.31313686 -24.51883331 -11.81195125 47.73278861 -12.60953951 42.08081698 -5.36307599 -38.61933612
3388230000 -1.32592958 -24.49151226 -11.81423670 47.65217244 -12.61207692 42.09087710 -5.38193962 -38.68218959
3393220000 -1.33358317 -24.44686133 -11.80467896 47.80044661 -12.59738544 41.94719608 -5.38152806 -38.75264119
3398210000 -1.33322230 -24.47886950 -11.78744720 47.87306829 -12.58758875 42.12008785 -5.37044587 -38.62296286
3403200000 -1.34834073 -24.49581761 -11.80202003 47.80562448 -12.59467362 42.04177034 -5.39100744 -38.68924985
3408190000 -1.35932425 -24.56852040 -11.78590287 47.70128375 -12.56931140 41.92362289 -5.38891917 -38.81248749
3413180000 -1.35320358 -24.69432867 -11.78110438 47.49120942 -12.56591137 41.88593582 -5.40398963 -38.82532923
3418170000 -1.36011998 -24.72381639 -11.75931099 47.53382771 -12.55122699 41.88787506 -5.39235080 -38.89255528
3423160000 -1.37361748 -24.77570744 -11.78366477 47.48771802 -12.55470659 41.86033203 -5.38556502 -38.96527693
3428150000 -1.36745489 -24.87509117 -11.76213528 47.50987022 -12.55456891 41.81433828 -5.41253297 -38.94077722
3433140000 -1.36347044 -24.91598849 -11.76349038 47.39651962 -12.55057201 41.86523659 -5.40830591 -39.05229221
3438130000 -1.36953440 -24.94811771 -11.75769381 47.41063097 -12.55636873 41.73533930 -5.40639633 -38.98333908
3443120000 -1.36720690 -25.06053296 -11.75239222 47.32989175 -12.52375248 41.61018175 -5.39431215 -39.11484654
3448110000 -1.36273126 -25.11849142 -11.76167877 47.27689944 -12.53770487 41.68855927 -5.40265086 -39.00595816
3453100000 -1.35827415 -25.18926103 -11.74995403 47.18798638 -12.51963714 41.66400592 -5.41744218 -39.01067671
3458090000 -1.34732037 -25.18481115 -11.73476950 47.25581422 -12.52087809 41.59890479 -5.41930912 -39.05157168
3463080000 -1.34598316 -25.20534998 -11.73550501 47.16205509 -12.50770252 41.55212768 -5.42747812 -39.08775161
3468070000 -1.34780817 -25.23047161 -11.73066831 47.04274172 -12.49789674 41.60037128 -5.42491628 -39.11513352
3473060000 -1.35052061 -25.22736677 -11.71760835 47.05058970 -12.50568177 41.54848981 -5.42948693 -39.20288861
3478050000 -1.35378429 -25.21877820 -11.72360527 47.10155805 -12.50950213 41.42701010 -5.43919148 -39.17193348
3483040000 -1.35141237 -25.26177231 -11.72676742 46.98254537 -12.48768130 41.48640303 -5.44812441 -39.19702114
3488030000 -1.36043595 -25.26785347 -11.70344318 46.81094147 -12.47486651 41.40941637 -5.44888463 -39.28377797
3493020000 -1.35191727 -25.25667143 -11.70992833 47.01633849 -12.46737986 41.34165463 -5.45787258 -39.27495326
3498010000 -1.36778279 -25.21884129 -11.71628339 46.93010778 -12.46209410 41.43636139 -5.45194435 -39.28376348
3503000000 -1.38441776 -25.25961268 -11.70920763 46.93359090 -12.45864568 41.36124019 -5.47055187 -39.30724862
3507990000 -1.38706970 -25.29434608 -11.71821741 46.83080837 -12.46582095 41.37361435 -5.46118168 -39.33596670
3512980000 -1.39362044 -25.25504286 -11.69855824 46.90647513 -12.45434128 41.33847621 -5.47211244 -39.38542431
3517970000 -1.40174749 -25.35623548 -11.69696023 46.75005095 -12.45600048 41.39083022 -5.46417641 -39.40998098
3522960000 -1.39335062 -25.43220527 -11.67218652 46.84561275 -12.44193385 41.24520657 -5.48489232 -39.44886871
3527950000 -1.41041755 -25.53388092 -11.68138605 46.78099357 -12.42561196 41.27568744 -5.48686794 -39.43369275
3532940000 -1.41105987 -25.59228836 -11.66413320 46.72975047 -12.41549850 41.26007400 -5.47984587 -39.51864382
3537930000 -1.40619355 -25.68353070 -11.66296700 46.58716724 -12.42316074 41.27054933 -5.49022702 -39.53281110
3542920000 -1.41205529 -25.68217545 -11.65984422 46.59583283 -12.41050605 41.22347309 -5.49419679 -39.63638914
3547910000 -1.40422567 -25.81437599 -11.66325103 46.63359124 -12.40528235 41.21670569 -5.48737586 -39.60569315
3552900000 -1.40193914 -25.83795557 -11.64910801 46.40940336 -12.40401103 41.08665405 -5.48898966 -39.60077619
3557890000 -1.39272061 -25.93152142 -11.63734514 46.55692873 -12.38863142 41.12837558 -5.49459350 -39.61142199
3562880000 -1.38991067 -25.95293214 -11.64185961 46.37505341 -12.38510375 40.95609403 -5.50754217 -39.69558703
3567870000 -1.40020219 -25.98795036 -11.62705343 46.32899810 -12.37029177 40.93674543 -5.49376626 -39.78000764
3572860000 -1.39277611 -26.00590795 -11.63068697 46.38255467 -12.37484118 40.89035473 -5.50747514 -39.68094184
3577850000 -1.38604220 -25.98587300 -11.62337148 46.21100346 -12.36779926 40.85318670 -5.50825991 -39.79340539
3582840000 -1.38036813 -26.02893349 -11.61875205 46.31560613 -12.36547511 40.99280167 -5.53286457 -39.71767672
3587830000 -1.39378986 -26.02099401 -11.63156970 46.30320802 -12.34779682 40.88349010 -5.51701781 -39.82445231
3592820000 -1.39938992 -26.04176568 -11.63561155 46.25431696 -12.36860021 40.90981011 -5.53639553 -39.70933477
3597810000 -1.40491632 -26.05455080 -11.60941784 46.21155814 -12.36398387 40.80636582 -5.53562972 -39.81183166
3602800000 -1.41260554 -26.04993815 -11.61077122 46.20096147 -12.36699293 40.85571697 -5.54360445 -39.86203292
3607790000 -1.40885281 -26.03380608 -11.60399857 46.08349591 -12.34241877 40.82355667 -5.54114807 -39.94674163
3612780000 -1.41430586 -26.02706367 -11.60723907 46.06665683 -12.33658457 40.87499871 -5.55482591 -39.99945032
3617770000 -1.43235013 -26.10518004 -11.60764954 46.05644140 -12.34776911 40.71904545 -5.55075963 -40.02063835
3622760000 -1.43958804 -26.07202727 -11.58712072 46.02984737 -12.34190921 40.76916607 -5.56026733 -39.99821640
3627750000 -1.44251221 -26.18825858 -11.59855100 46.02526180 -12.33165845 40.68458104 -5.55069939 -40.07901834
3632740000 -1.44677304 -26.24141447 -11.57744767 45.95036530 -12.31710058 40.83514416 -5.55943232 -40.03394022
3637730000 -1.44880498 -26.24325154 -11.57822749 46.06466401 -12.31981241 40.76838679 -5.55390229 -40.19225353
3642720000 -1.45210348 -26.33090744 -11.57700901 45.95545197 -12.31202724 40.69431247 -5.56826514 -40.10284896
3647710000 -1.44137496 -26.49294213 -11.55181877 45.72458528 -12.30296453 40.66440225 -5.56681034 -40.18545075
3652700000 -1.44678003 -26.55223125 -11.57344032 45.83110661 -12.29111245 40.60486068 -5.57472167 -40.18797349
3657690000 -1.44175330 -26.64450070 -11.55227368 45.65609328 -12.28903849 40.48144824 -5.57465923 -40.29277064
3662680000 -1.44099158 -26.66162395 -11.54851678 45.78978822 -12.27720129 40.56371269 -5.56755397 -40.30526225
3667670000 -1.43774213 -26.68262106 -11.54945549 45.70382496 -12.27026322 40.49275564 -5.58306708 -40.22877175
3672660000 -1.42814486 -26.68697300 -11.54861350 45.58738144 -12.28312254 40.46166753 -5.57535624 -40.27205226
3677650000 -1.42806937 -26.76709608 -11.54518022 45.66379030 -12.28074261 40.39508685 -5.59130061 -40.32842056
3682640000 -1.43496010 -26.79555808 -11.54187439 45.55924862 -12.27208105 40.36270598 -5.59342041 -40.25797004
3687630000 -1.43153898 -26.80807305 -11.53366966 45.55831351 -12.26877907 40.33526056 -5.59948583 -40.38001281
3692620000 -1.43919455 -26.83882874 -11.54592576 45.44820352 -12.26456488 40.31878361 -5.60236991 -40.35434755
3697610000 -1.43359588 -26.82423118 -11.53927354 45.38528177 -12.25325631 40.27821220 -5.62049088 -40.34034174
3702600000 -1.44261757 -26.79753975 -11.53755897 45.40522159 -12.25130918 40.23889083 -5.60830087 -40.37930417
3707590000 -1.44802821 -26.75996317 -11.52408060 45.42334647 -12.25234232 40.27873448 -5.61731733 -40.46345928
3712580000 -1.45458255 -26.76030178 -11.53444578 45.45462377 -12.22353966 40.25056359 -5.62037062 -40.52204494
3717570000 -1.46259616 -26.86951076 -11.52674284 45.25494981 -12.25369198 40.13863599 -5.62380405 -40.48881552
3722560000 -1.46152670 -26.85934748 -11.51791084 45.38370421 -12.22821602 40.28063001 -5.61714900 -40.59551546
3727550000 -1.46797066 -26.81669938 -11.51773692 45.42427660 -12.22886878 40.31427568 -5.63198674 -40.58953359
3732540000 -1.48002255 -26.91190756 -11.50746261 45.26401872 -12.22108685 40.16401076 -5.63057376 -40.58894636
3737530000 -1.47293856 -26.96327976 -11.50339021 45.31751092 -12.21619964 40.31629629 -5.64508824 -40.64122194
3742520000 -1.48380651 -27.06764389 -11.50243421 45.16924341 -12.20972409 40.32404509 -5.64144238 -40.67822859
3747510000 -1.49736109 -27.13471607 -11.47734083 45.24855770 -12.19189845 40.22099916 -5.64475347 -40.67564915
3752500000 -1.48429822 -27.12810890 -11.48074172 45.24024272 -12.19758417 40.11715523 -5.63876580 -40.70201141
3757490000 -1.48313888 -27.22253961 -11.47413402 45.10637078 -12.19674245 40.15562750 -5.65176482 -40.75429477
3762480000 -1.48319050 -27.30874448 -11.47527295 45.07404741 -12.16319969 40.14703210 -5.65173778 -40.85308184
3767470000 -1.49003108 -27.41288416 -11.47142132 45.00675288 -12.15202133 40.10867947 -5.65213376 -40.77224913
3772460000 -1.47650774 -27.38781225 -11.47923960 44.97892257 -12.14827593 40.14391207 -5.64612138 -40.83461057
3777450000 -1.46547596 -27.42323977 -11.46563160 44.79063108 -12.15188208 40.07469503 -5.66373400 -40.79075944
3782440000 -1.46942792 -27.50949611 -11.44767861 44.87739009 -12.14651309 39.95977064 -5.66067969 -40.90707928
3787430000 -1.47447423 -27.50766667 -11.43561532 44.83775088 -12.14924924 40.02035484 -5.66051868 -40.86068640
3792420000 -1.47779854 -27.49490954 -11.45337262 44.77552417 -12.15991732 39.87642276 -5.67873459 -40.94710057
3797410000 -1.47197083 -27.58254396 -11.44535654 44.73250006 -12.14692164 39.84723892 -5.67279875 -40.94895086
3802400000 -1.47576450 -27.61001216 -11.42491585 44.69974174 -12.15346947 39.78144311 -5.68120003 -41.02471100
3807390000 -1.48160639 -27.60561860 -11.44001676 44.71582564 -12.14656684 39.86420780 -5.68620055 -41.00695976
3812380000 -1.48643256 -27.58769235 -11.44143902 44.58182171 -12.14265153 39.82468577 -5.69198156 -41.04331322
3817370000 -1.49626699 -27.53619695 -11.45363004 44.73473471 -12.13695975 39.70774901 -5.69317894 -41.01147424
3822360000 -1.50396463 -27.48982367 -11.43244102 44.66854501 -12.12553547 39.79901578 -5.69615132 -41.03215241
3827350000 -1.50676886 -27.59469083 -11.43403090 44.57785044 -12.12279542 39.78698407 -5.71169048 -41.11690187
3832340000 -1.51129900 -27.61786929 -11.42108371 44.61601707 -12.11170261 39.87547463 -5.71184885 -41.16014168
3837330000 -1.52283430 -27.65152129 -11.42146378 44.55055022 -12.11455421 39.85659439 -5.70954441 -41.11492657
3842320000 -1.52047661 -27.63918600 -11.41910363 44.61596546 -12.10069615 39.81340827 -5.72370420 -41.17012016
3847310000 -1.52908435 -27.69696952 -11.42154489 44.62167907 -12.10121859 39.69914804 -5.71068481 -41.16784314
3852300000 -1.53443167 -27.77828981 -11.39400008 44.48303309 -12.08995788 39.57070081 -5.72486255 -41.28925429
3857290000 -1.53347454 -27.81349740 -11.39506966 44.52838409 -12.07017182 39.60440622 -5.72671667 -41.29157045
3862280000 -1.53667203 -27.93521356 -11.39724223 44.39525157 -12.07587342 39.57714930 -5.72158333 -41.27523252
3867270000 -1.53342505 -27.95756739 -11.39397822 44.36908487 -12.07181940 39.64128573 -5.73242013 -41.28732357
3872260000 -1.52575420 -28.03684022 -11.37683927 44.30326437 -12.07920144 39.54260970 -5.73296457 -41.36680527
3877250000 -1.52035399 -28.02956052 -11.36911179 44.36395024 -12.06141912 39.59547110 -5.73464576 -41.36005183
3882240000 -1.52361481 -28.12078283 -11.37981332 44.20266084 -12.06655216 39.39226887 -5.73230319 -41.37361023
3887230000 -1.52108528 -28.16339135 -11.35511743 44.22523682 -12.04735463 39.49185331 -5.73097288 -41.43672127
3892220000 -1.52199430 -28.12965383 -11.36490629 44.18338305 -12.05040324 39.46150625 -5.74077272 -41.37615895
3897210000 -1.53319140 -28.16604817 -11.36513604 44.22741633 -12.05543313 39.37562114 -5.74582530 -41.42972087
3902200000 -1.52269357 -28.26248149 -11.34966178 44.11656963 -12.04149448 39.30290547 -5.75492967 -41.37505022
3907190000 -1.52825256 -28.21712458 -11.36893545 44.07451548 -12.04693553 39.38599064 -5.75886637 -41.46333819
3912180000 -1.52801737 -28.22094678 -11.36362211 44.10434815 -12.04519433 39.34845638 -5.75364379 -41.50858594
3917170000 -1.52732155 -28.19356144 -11.35140389 43.97269354 -12.02428860 39.22648619 -5.76721584 -41.54212335
3922160000 -1.53416397 -28.19774859 -11.35484484 43.85663364 -12.02495429 39.33639919 -5.76258930 -41.60392285
3927150000 -1.53781681 -28.16961970 -11.34656108 44.00087759 -12.03215506 39.30334956 -5.76453440 -41.56132187
3932140000 -1.54855635 -28.22371027 -11.34230437 43.86649402 -12.02672638 39.19616965 -5.77546259 -41.60796836
3937130000 -1.55623462 -28.20661761 -11.34084199 43.90403094 -12.01635681 39.33535610 -5.77524258 -41.65089965
3942120000 -1.56835635 -28.29495827 -11.34684795 43.74501538 -12.00907768 39.26235353 -5.78167782 -41.67413112
3947110000 -1.56479135 -28.27723169 -11.33423951 43.83785590 -11.99260737 39.31757189 -5.77806014 -41.67267871
3952100000 -1.57345053 -28.29654331 -11.33067034 43.80035721 -12.02099743 39.21482543 -5.79211293 -41.82788837
3957090000 -1.57450823 -28.33961326 -11.32482319 43.82591194 -11.99619827 39.14143899 -5.79468837 -41.81096832
3962080000 -1.57919325 -28.41514738 -11.31513005 43.72751285 -11.98452812 39.17278926 -5.79899264 -41.85190185
3967070000 -1.57936112 -28.53323030 -11.30967755 43.77051524 -11.98728325 39.19543323 -5.79047101 -41.86885223
3972060000 -1.57563384 -28.55360640 -11.31062007 43.62173224 -11.96841038 39.12146501 -5.80793054 -41.91777538
3977050000 -1.57786137 -28.60226269 -11.30227336 43.71324564 -11.97335500 39.05889036 -5.79613042 -41.91413716
3982040000 -1.57325785 -28.57406707 -11.30675875 43.68148710 -11.97813686 39.06148694 -5.81297479 -41.97822727
3987030000 -1.57189172 -28.68685704 -11.30543019 43.58647742 -11.95459844 39.09324163 -5.81193063 -41.86005250
3992020000 -1.57310882 -28.73881564 -11.29813382 43.48179263 -11.95452551 38.88461552 -5.81006845 -41.95114403
3997010000 -1.57288465 -28.75041044 -11.28404178 43.43116632 -11.95316195 38.88276141 -5.80956980 -42.02352377
4002000000 -1.56281599 -28.75953496 -11.26199015 43.41948188 -11.93892172 38.85600162 -5.81638630 -41.93837804
4006990000 -1.57917450 -28.74797476 -11.28144876 43.41223662 -11.93333149 38.89810649 -5.80768189 -42.04676993
4011980000 -1.57287709 -28.81442599 -11.27640366 43.41842259 -11.94448612 38.86304500 -5.83114813 -41.97019619
4016970000 -1.57367914 -28.78079206 -11.28447960 43.38104719 -11.93253672 38.71407047 -5.82975108 -42.11566154
4021960000 -1.57008856 -28.74400183 -11.26441085 43.34796187 -11.94633601 38.77171201 -5.83800557 -42.13208964
4026950000 -1.58264499 -28.72281143 -11.27457608 43.35061179 -11.95403116 38.79224434 -5.84996772 -42.11767383
4031940000 -1.58052926 -28.71106114 -11.28470143 43.36693358 -11.92432074 38.74669440 -5.82832206 -42.08710530
4036930000 -1.58579916 -28.71394878 -11.27756148 43.29906055 -11.90448652 38.73140361 -5.84231181 -42.26917672
4041920000 -1.59223896 -28.74774502 -11.25220413 43.31621608 -11.93106797 38.78115743 -5.83582100 -42.20821611
4046910000 -1.60156079 -28.73422753 -11.27492519 43.22469496 -11.92752168 38.83704518 -5.84867339 -42.26895093
4051900000 -1.61408738 -28.83226442 -11.27366512 43.14493409 -11.91023637 38.79977975 -5.86528215 -42.22272766
4056890000 -1.61207515 -28.78251739 -11.27043273 43.21146091 -11.91432858 38.79041131 -5.85219082 -42.23036867
4061880000 -1.61926407 -28.89371161 -11.23957924 43.22135114 -11.88729147 38.84105901 -5.85573427 -42.23307375
4066870000 -1.61732285 -28.91923299 -11.23611057 43.09698749 -11.89098887 38.66162148 -5.85822674 -42.37398658
4071860000 -1.61579057 -29.03310949 -11.24900240 43.02793966 -11.88880212 38.70498258 -5.88480136 -42.37396725
4076850000 -1.62636934 -28.93760881 -11.22683360 43.15051892 -11.87993529 38.64554273 -5.88170301 -42.34174522
4081840000 -1.61714229 -29.08475738 -11.23212813 43.08045054 -11.86610465 38.56066695 -5.85878824 -42.46171302
4086830000 -1.61288349 -29.14910271 -11.22658353 43.01844319 -11.86122699 38.56023355 -5.87117352 -42.44602601
4091820000 -1.61052128 -29.17817076 -11.20371597 42.97822946 -11.87623102 38.59481354 -5.87555640 -42.40353454
4096810000 -1.61309779 -29.23483466 -11.20299868 42.98800743 -11.85005223 38.49061444 -5.88999988 -42.29736527
4101800000 -1.61121579 -29.26059325 -11.22281874 42.89513050 -11.86363209 38.58601610 -5.90101752 -42.50090209
4106790000 -1.61092562 -29.25630011 -11.20203031 42.85666755 -11.88427785 38.51111751 -5.89139828 -42.53701509
4111780000 -1.59983557 -29.30517745 -11.20779372 42.80825401 -11.84370503 38.46257432 -5.86319588 -42.59771321
4116770000 -1.61239168 -29.30854223 -11.22192784 42.67714090 -11.85686616 38.36249734 -5.88412062 -42.47364348
4121760000 -1.61716924 -29.23313749 -11.21547697 42.77526947 -11.84605527 38.33394279 -5.89604047 -42.62311596
4126750000 -1.61168029 -29.27214049 -11.19375377 42.65624464 -11.86148053 38.35302890 -5.90488162 -42.60767488
4131740000 -1.61430723 -29.28264875 -11.21385504 42.58267573 -11.82579194 38.21498661 -5.90968483 -42.68257723
4136730000 -1.62189049 -29.28160731 -11.20581832 42.64929822 -11.85791265 38.32832943 -5.91635573 -42.70298656
4141720000 -1.62209396 -29.21480084 -11.20415231 42.61345088 -11.84491110 38.23845464 -5.92058981 -42.58262316
4146710000 -1.63670334 -29.26090585 -11.18743674 42.61816913 -11.82419460 38.38398173 -5.90741099 -42.72011474
4151700000 -1.64293011 -29.25241706 -11.18217218 42.60512338 -11.81647082 38.29076098 -5.90143866 -42.76914821
4156690000 -1.64815222 -29.26383431 -11.18008184 42.65755619 -11.80559840 38.37418906 -5.90673629 -42.86054484
4161680000 -1.65381937 -29.40035147 -11.17920062 42.59274035 -11.81873994 38.12506972 -5.92805442 -42.77535484
4166670000 -1.65163905 -29.38510556 -11.16409649 42.58002017 -11.81278250 38.20258920 -5.91263044 -42.76684145
4171660000 -1.66601515 -29.38790043 -11.16529375 42.54406636 -11.79625020 38.03286433 -5.93237343 -42.94462868
4176650000 -1.64776775 -29.42494806 -11.15509298 42.56043735 -11.79668365 38.13724503 -5.92533669 -42.96685238
4181640000 -1.66264051 -29.49691509 -11.17719198 42.46390223 -11.80448700 38.16285698 -5.94011437 -42.88901206
4186630000 -1.66874024 -29.54275454 -11.15232471 42.44065665 -11.78674580 38.05181932 -5.94063097 -43.00368997
4191620000 -1.65911746 -29.60805905 -11.15316436 42.34788511 -11.78188719 38.08552301 -5.93322894 -43.02935143
4196610000 -1.65369089 -29.60433180 -11.15536109 42.42969295 -11.77087465 38.17277296 -5.92840701 -42.86862567
4201600000 -1.66508240 -29.72317915 -11.14601146 42.29318863 -11.77967467 38.10733390 -5.94432048 -43.06060868
4206590000 -1.65701616 -29.67127946 -11.15124790 42.25596285 -11.77811957 37.98621745 -5.95603296 -43.01047026
4211580000 -1.64462798 -29.69720113 -11.14307708 42.20862127 -11.76052227 38.04455288 -5.95331275 -43.07732653
4216570000 -1.65533481 -29.81224899 -11.13842079 42.16831914 -11.77941369 37.94550706 -5.94798529 -43.08232869
4221560000 -1.64861928 -29.74774235 -11.13286371 42.25347748 -11.74330398 37.98389798 -5.95355223 -43.08952469
4226550000 -1.64993306 -29.67222240 -11.15050902 42.18885526 -11.77605100 37.95868376 -5.96511907 -43.07438723
4231540000 -1.66173293 -29.75298140 -11.13717298 41.94599059 -11.76233647 37.99282610 -5.96486723 -43.21678176
4236530000 -1.66302358 -29.68915445 -11.14359980 42.18915247 -11.74526981 37.78201504 -5.96277754 -43.11864498
4241520000 -1.66743562 -29.64342293 -11.13052263 42.06857416 -11.76653068 37.90446068 -5.98054402 -43.21623866
4246510000 -1.67076021 -29.71482867 -11.12660368 42.08975565 -11.73803479 37.89919679 -5.97304792 -43.19866958
4251500000 -1.67467077 -29.64552355 -11.13847112 42.10486718 -11.76295704 37.90561553 -5.98088469 -43.20081618
4256490000 -1.68320365 -29.69327718 -11.11182388 42.09695328 -11.72486391 37.82829691 -5.96725108 -43.26508694
4261480000 -1.70083884 -29.72252357 -11.11297847 42.11076651 -11.73515893 38.09426945 -5.96838850 -43.25271264
4266470000 -1.69274942 -29.72362347 -11.10867568 42.01726868 -11.71885688 37.86087953 -5.98505942 -43.31816028
4271460000 -1.69511411 -29.74232277 -11.07848222 42.00155172 -11.71780056 37.85751184 -5.98612197 -43.28825918
4276450000 -1.69980130 -29.80689089 -11.10162706 42.03797551 -11.73112669 37.78482465 -5.98955684 -43.34497044
4281440000 -1.70564600 -29.85009234 -11.08864126 41.95819692 -11.71458753 37.91895008 -5.98912814 -43.50365940
4286430000 -1.71142273 -29.97213937 -11.09512530 41.82491656 -11.71682450 37.79151358 -5.98936225 -43.46753056
4291420000 -1.69981056 -29.96422101 -11.08460563 41.84716444 -11.69458023 37.63644133 -6.00109563 -43.43115061
4296410000 -1.70289828 -30.03601184 -11.07106415 41.76792084 -11.69178934 37.65595152 -6.00074663 -43.51843675
4301400000 -1.70726191 -30.08609515 -11.08087316 41.82637971 -11.70492676 37.72072250 -6.00551937 -43.60140824
4306390000 -1.70050255 -30.08495854 -11.07548226 41.78049726 -11.69525813 37.67588130 -6.01521672 -43.61670533
4311380000 -1.69715794 -30.06509919 -11.07648074 41.69080334 -11.71793725 37.64593363 -6.01410944 -43.49785536
4316370000 -1.69376152 -30.15694303 -11.08655056 41.68752156 -11.69043201 37.60351394 -6.02686915 -43.56947244
4321360000 -1.69650179 -30.15797089 -11.06832716 41.63483388 -11.68373865 37.52128393 -6.02063614 -43.53885119
4326350000 -1.69313861 -30.14267647 -11.08632936 41.68932969 -11.68595294 37.56969209 -6.03383878 -43.67566823
4331340000 -1.70148317 -30.16338620 -11.07067027 41.63894278 -11.68956757 37.59538979 -6.01691345 -43.70035475
4336330000 -1.70000108 -30.15447869 -11.05404589 41.58506616 -11.67806816 37.55316651 -6.03358569 -43.77315956
4341320000 -1.69657754 -30.13263099 -11.06338140 41.52199562 -11.67179513 37.45946580 -6.03025879 -43.71869478
4346310000 -1.70048441 -30.04801552 -11.05251811 41.62499692 -11.65719339 37.50558916 -6.03506445 -43.66176385
4351300000 -1.71107962 -30.07074218 -11.05011178 41.68030389 -11.65736394 37.66789962 -6.04775473 -43.81738889
4356290000 -1.72252658 -30.16173722 -11.06125333 41.53858798 -11.66850162 37.38622476 -6.03744601 -43.85988691
4361280000 -1.72918351 -30.13942927 -11.04758623 41.47054339 -11.65620885 37.40126223 -6.05528632 -43.85840296
4366270000 -1.72513525 -30.18386683 -11.04165537 41.42762039 -11.64797930 37.45325132 -6.05079225 -43.84505704
4371260000 -1.73460721 -30.18537734 -11.03721487 41.36855795 -11.65150312 37.50656523 -6.05377763 -43.86272621
4376250000 -1.74040959 -30.16587491 -11.03466189 41.35407736 -11.64340559 37.40572250 -6.06356507 -43.95026435
4381240000 -1.71945208 -30.22998507 -11.02660027 41.45247934 -11.63131283 37.38587632 -6.05789680 -43.93312053
4386230000 -1.74386073 -30.25454329 -11.02764612 41.39263149 -11.61761553 37.48178981 -6.05617896 -43.87451996
4391220000 -1.75099986 -30.30448656 -11.03994299 41.31643960 -11.62264006 37.38507019 -6.05364630 -43.93507495
4396210000 -1.75684154 -30.41061323 -11.03806426 41.37001527 -11.61569522 37.33308256 -6.05146550 -43.95474682
4401200000 -1.75364496 -30.40499880 -11.00779238 41.22962238 -11.61300973 37.32484012 -6.05226100 -43.97516943
4406190000 -1.74556760 -30.45016972 -11.01204748 41.33733743 -11.61275508 37.20807767 -6.08046435 -44.01089144
4411180000 -1.74108072 -30.55739239 -11.01421829 41.28344170 -11.60563374 37.20793810 -6.08212431 -44.08927926
4416170000 -1.74481775 -30.54685463 -11.01552862 41.20565048 -11.60450119 37.26291398 -6.09034513 -44.02789534
4421160000 -1.74630771 -30.53549895 -10.99280264 41.10259411 -11.60448605 37.18360197 -6.08063858 -44.14774303
4426150000 -1.74174519 -30.48658070 -11.00918471 41.18014464 -11.61562536 37.18458435 -6.10153445 -44.12857756
4431140000 -1.74067457 -30.61108351 -10.98896650 40.92741261 -11.59478007 37.18513449 -6.09877238 -44.16297862
4436130000 -1.73679078 -30.56595776 -10.98174584 41.08029043 -11.59226964 37.15217991 -6.10451491 -44.14016294
4441120000 -1.74214481 -30.52920197 -10.99261697 41.17061602 -11.57963983 37.06959563 -6.10647009 -44.18452699
4446110000 -1.74759802 -30.54156016 -10.98437745 41.08218959 -11.58741536 36.98536025 -6.11017606 -44.17493662
4451100000 -1.74344949 -30.58238350 -10.99404674 40.88211583 -11.57701081 37.05809729 -6.11257709 -44.25790063
4456090000 -1.74231859 -30.51689658 -10.99493432 40.96509403 -11.56599844 37.05807047 -6.11089335 -44.28817268
4461080000 -1.75636459 -30.48946816 -10.97964578 40.97060952 -11.58137562 36.91817501 -6.11209293 -44.32606922
4466070000 -1.75942591 -30.52771585 -10.97584455 40.98371389 -11.57456615 37.18410716 -6.11601484 -44.39629974
4471060000 -1.76092843 -30.53531926 -10.96295628 40.93422470 -11.55159378 37.16080221 -6.10489588 -44.39180918
4476050000 -1.76250799 -30.57144199 -10.96958210 40.97527530 -11.56202996 37.03844713 -6.11924362 -44.41431545
4481040000 -1.77695343 -30.61194815 -10.96179771 40.91300865 -11.56995480 37.09007363 -6.12325756 -44.37680412
4486030000 -1.78396571 -30.61676819 -10.95598846 40.97752154 -11.56828788 36.93133077 -6.12864533 -44.44899443
4491020000 -1.78910277 -30.63516691 -10.96427196 40.81545622 -11.56171118 36.99739676 -6.13529596 -44.39439824
4496010000 -1.79347998 -30.77041686 -10.96533540 40.87150924 -11.54543197 36.94875746 -6.13867167 -44.42250187
4501000000 -1.79438344 -30.76830753 -10.96698179 40.86446801 -11.53253581 37.09061739 -6.13106611 -44.47711951
4505990000 -1.78597722 -30.82894596 -10.94538609 40.80165867 -11.53753438 36.92093808 -6.12675472 -44.55037263
4510980000 -1.78668072 -30.90151575 -10.93580964 40.86058371 -11.54067307 36.89832596 -6.13860913 -44.39068192
4515970000 -1.79131738 -30.87516154 -10.93365854 40.70937020 -11.53271189 36.96913438 -6.15113021 -44.43662849
4520960000 -1.79135329 -30.90178315 -10.93344045 40.82601376 -11.51969788 36.90371494 -6.15927183 -44.48866333
4525950000 -1.77673226 -30.90333230 -10.92487427 40.72967058 -11.51825648 36.91963465 -6.16246434 -44.51562010
4530940000 -1.78031559 -30.97301418 -10.93302696 40.76493894 -11.49582405 36.78939354 -6.14241333 -44.59670760
4535930000 -1.77835752 -31.03975396 -10.94940108 40.57817981 -11.50516504 36.80658329 -6.16318375 -44.56376865
4540920000 -1.77201196 -30.98486993 -10.92567489 40.59892534 -11.49709111 36.77447440 -6.16959779 -44.65070966
4545910000 -1.78546491 -30.96895460 -10.91944681 40.63928767 -11.50995471 36.89781176 -6.17345610 -44.63878990
4550900000 -1.78191086 -30.96902543 -10.92196470 40.57546275 -11.49579058 36.74252066 -6.17860316 -44.64272255
4555890000 -1.78937728 -30.92683262 -10.92402432 40.53853641 -11.50094337 36.77498483 -6.17422983 -44.77564317
4560880000 -1.79668167 -30.94664510 -10.92389755 40.55988814 -11.50488347 36.79246765 -6.18376579 -44.79503163
4565870000 -1.80468545 -30.99769478 -10.91673770 40.50792668 -11.47710164 36.57526324 -6.17448311 -44.82476821
4570860000 -1.80494484 -30.95752006 -10.90434856 40.46148307 -11.49130671 36.59684007 -6.16733687 -44.81774089
4575850000 -1.81223447 -30.99874982 -10.90584074 40.47057157 -11.47957016 36.58016183 -6.18320067 -44.87219150
4580840000 -1.81390456 -30.94800924 -10.90506983 40.41913254 -11.48442304 36.60127603 -6.18439678 -44.86929716
4585830000 -1.82251145 -30.99667302 -10.88993227 40.48410491 -11.47923400 36.59327293 -6.18408403 -44.93191605
4590820000 -1.82897383 -31.07336871 -10.88312521 40.33679824 -11.47909937 36.74255856 -6.18635774 -44.94172620
4595810000 -1.83296537 -31.09015581 -10.91014119 40.39152068 -11.46187751 36.53635237 -6.19577622 -44.99294870
4600800000 -1.83096611 -31.14597845 -10.88862975 40.31304770 -11.45750925 36.63763489 -6.18684589 -44.92812066
4605790000 -1.83315290 -31.22508949 -10.88854726 40.31275455 -11.43628434 36.63321443 -6.20001537 -44.94499325
4610780000 -1.83281241 -31.23142345 -10.87320465 40.37687380 -11.45255778 36.62625223 -6.20910033 -44.96367197
4615770000 -1.83671998 -31.31465695 -10.87264054 40.31407650 -11.44784756 36.53257886 -6.19394492 -44.94617087
4620760000 -1.83112342 -31.28937880 -10.86788267 40.32196828 -11.44238701 36.54456116 -6.20535356 -44.98845791
4625750000 -1.83430426 -31.39630270 -10.87695072 40.11686466 -11.43228356 36.45348835 -6.20345784 -44.96144150
4630740000 -1.83048339 -31.40228234 -10.86695738 40.10082462 -11.42938508 36.43482709 -6.21977365 -45.03318489
4635730000 -1.83031171 -31.45253378 -10.86434706 40.12370422 -11.42556073 36.42166886 -6.22446853 -45.05713218
4640720000 -1.82791941 -31.42096891 -10.85717620 40.07600888 -11.41622990 36.36677094 -6.20857434 -45.04865595
4645710000 -1.83323000 -31.46754803 -10.85724895 40.07433420 -11.42246388 36.31313932 -6.22580879 -45.09547647
4650700000 -1.82466630 -31.41629079 -10.83883909 40.08611492 -11.41408122 36.39624371 -6.23494540 -45.10377829
4655690000 -1.82777613 -31.43811569 -10.84731665 40.05043619 -11.43758159 36.36221056 -6.24186040 -45.11636312
4660680000 -1.83417112 -31.41094717 -10.85148984 39.97700497 -11.41692934 36.35313505 -6.24031137 -45.16352486
4665670000 -1.83609003 -31.39384505 -10.84378047 39.95104934 -11.40708266 36.30329603 -6.24806175 -45.24081361
4670660000 -1.84099214 -31.46018588 -10.83636633 40.02489355 -11.42298429 36.28232001 -6.23197778 -45.26513602
4675650000 -1.84386879 -31.44245550 -10.85455441 40.00941052 -11.39394394 36.29213414 -6.25012980 -45.28434922
4680640000 -1.84973888 -31.43428234 -10.84547972 39.89406095 -11.40814027 36.31719357 -6.24816423 -45.36838129
4685630000 -1.85769158 -31.44319279 -10.83761177 39.94118731 -11.39280599 36.22803354 -6.25336159 -45.41735434
4690620000 -1.86168246 -31.46940987 -10.81978655 39.87158574 -11.40321171 36.20214157 -6.25452160 -45.42134775
4695610000 -1.86337174 -31.51036846 -10.82201571 39.88134129 -11.38240194 36.19723751 -6.25705746 -45.39196894
4700600000 -1.87501885 -31.56312755 -10.81394875 39.88362611 -11.38753457 36.26252306 -6.25404588 -45.50903590
4705590000 -1.87433905 -31.63128196 -10.81347115 39.82740628 -11.38015712 36.15081685 -6.24737977 -45.41063997
4710580000 -1.87744984 -31.68322901 -10.81853867 39.83609217 -11.36733787 36.10551968 -6.24577370 -45.40815203
4715570000 -1.87725511 -31.69725446 -10.80124168 39.83660679 -11.36984628 36.17292121 -6.25437342 -45.33672684
4720560000 -1.87826634 -31.76707656 -10.80594531 39.73032006 -11.36208867 36.24936982 -6.25943781 -45.41246456
4725550000 -1.88016478 -31.81109373 -10.79886326 39.70854673 -11.36590052 36.17162324 -6.26296535 -45.38650141
4730540000 -1.87402623 -31.82909855 -10.79445113 39.72579423 -11.35921538 36.18386079 -6.26995950 -45.45789010
4735530000 -1.86810888 -31.85471395 -10.79204454 39.70156272 -11.34740349 36.02934862 -6.26538382 -45.45339582
4740520000 -1.87611188 -31.91059556 -10.78700720 39.72093728 -11.34276475 36.13874206 -6.26856232 -45.45380472
4745510000 -1.87266951 -31.89681778 -10.80113893 39.66377062 -11.34089761 36.05686334 -6.28733852 -45.45500950
4750500000 -1.87415428 -31.96747496 -10.80912111 39.50020049 -11.33546003 36.05308755 -6.29716308 -45.48638570
4755490000 -1.88180044 -31.95024004 -10.78214336 39.61015442 -11.33593876 35.91724585 -6.29740369 -45.54794101
4760480000 -1.87077830 -31.96262385 -10.77646443 39.51015038 -11.34437689 35.90061669 -6.30685133 -45.54962247
4765470000 -1.88477799 -31.93676663 -10.78103789 39.51155816 -11.33872518 35.91303139 -6.30171255 -45.61123837
4770460000 -1.88239654 -31.94065719 -10.77259360 39.46143293 -11.33545150 35.93377852 -6.31605412 -45.71461182
4775450000 -1.89085827 -31.92319204 -10.76941123 39.46435475 -11.33009478 36.05464300 -6.30618043 -45.67098109
4780440000 -1.88634609 -31.95632793 -10.77376193 39.46057008 -11.31668957 35.87308227 -6.31377085 -45.73336477
4785430000 -1.89881674 -31.98093049 -10.76266625 39.45869734 -11.31302441 35.92704950 -6.31188413 -45.69918218
4790420000 -1.90425759 -31.92968917 -10.75862441 39.39185519 -11.32183275 35.86306686 -6.29713421 -45.81673375
4795410000 -1.90871899 -31.89965267 -10.76039930 39.33536404 -11.31378610 35.92154248 -6.30558769 -45.78942047
4800400000 -1.91446945 -31.99482580 -10.76722263 39.32278227 -11.30625185 35.84679026 -6.31428884 -45.80987424
4805390000 -1.92071634 -32.02138152 -10.75912022 39.37385600 -11.31347587 35.82304720 -6.30775374 -45.88305431
4810380000 -1.92152799 -32.10267350 -10.76029990 39.33677592 -11.29383619 35.80199462 -6.31241914 -45.85874571
4815370000 -1.92333456 -32.13150705 -10.73535369 39.35549500 -11.29828177 35.70925590 -6.30750872 -45.80771128
4820360000 -1.93085395 -32.14239579 -10.74883628 39.26260576 -11.29129454 35.83065635 -6.31093727 -45.79655807
4825350000 -1.93248876 -32.25130677 -10.73707569 39.31003977 -11.29088942 35.75317038 -6.30001588 -45.84557220
4830340000 -1.91936634 -32.22480082 -10.71751118 39.33787092 -11.29219081 35.77709048 -6.31504578 -45.82992707
4835330000 -1.92107537 -32.29022413 -10.72872179 39.24703549 -11.27702217 35.74549837 -6.31768295 -45.88501023
4840320000 -1.92717460 -32.36673763 -10.72546275 39.17486404 -11.28269333 35.71883260 -6.32029583 -45.78977980
4845310000 -1.93291797 -32.35407165 -10.73906799 39.12919458 -11.27935574 35.67026437 -6.33943700 -45.85943978
4850300000 -1.93016757 -32.33399733 -10.73675496 39.14980552 -11.28389173 35.66187969 -6.33473587 -45.93690894
4855290000 -1.91705269 -32.40837387 -10.72138777 39.10530101 -11.24809549 35.69617405 -6.34405809 -45.90999634
4860280000 -1.92179419 -32.44480289 -10.71859529 38.94260597 -11.26596013 35.56651823 -6.34667841 -45.99427354
4865270000 -1.92411930 -32.43635373 -10.73073434 39.05260084 -11.26101651 35.60181407 -6.34609208 -46.05748398
4870260000 -1.93456076 -32.46733750 -10.72157457 39.00937356 -11.26212765 35.49824884 -6.36179992 -46.02741941
4875250000 -1.93882768 -32.46694109 -10.72032718 38.91720359 -11.26640081 35.51961403 -6.36635559 -46.07317195
4880240000 -1.93565732 -32.40619217 -10.71621795 38.97514730 -11.25605640 35.68403425 -6.34576139 -46.08876016
4885230000 -1.93675568 -32.41145429 -10.71474414 39.01157163 -11.25071378 35.50093154 -6.36665179 -46.15165153
4890220000 -1.95142052 -32.43241612 -10.71415215 38.95657150 -11.23973062 35.55042253 -6.35174049 -46.21950704
4895210000 -1.95250914 -32.42425247 -10.71050679 38.91589557 -11.24710613 35.50500559 -6.35517449 -46.22200628
4900200000 -1.95377455 -32.47617226 -10.69630070 38.88858473 -11.24593246 35.49011795 -6.36114082 -46.18853316
4905190000 -1.95393004 -32.52454781 -10.70876910 38.79763103 -11.24779937 35.46650927 -6.37284748 -46.28501488
4910180000 -1.97397367 -32.52670055 -10.70257507 38.95220784 -11.23005913 35.43800168 -6.36999726 -46.26368288
4915170000 -1.96657719 -32.58758238 -10.67218815 38.88399234 -11.21674681 35.32491304 -6.35264691 -46.33955319
4920160000 -1.96176640 -32.68854777 -10.69269969 38.76459115 -11.21770137 35.42151458 -6.36549784 -46.20319567
4925150000 -1.97269253 -32.63588119 -10.67445991 38.78686844 -11.21221840 35.39041794 -6.37337074 -46.35883957
4930140000 -1.98565837 -32.77444170 -10.67757044 38.73957314 -11.21154578 35.42839217 -6.37647767 -46.22369818
4935130000 -1.97831747 -32.75206558 -10.67992359 38.71870787 -11.21140964 35.31758635 -6.38926856 -46.37246665
4940120000 -1.97276566 -32.79186988 -10.66780598 38.60174497 -11.20480411 35.34637343 -6.38466978 -46.39719455
4945110000 -1.98117856 -32.83339687 -10.67418538 38.68217411 -11.21092412 35.32727593 -6.37354749 -46.39351561
4950100000 -1.97050148 -32.84068991 -10.66034610 38.75819248 -11.20224941 35.27149886 -6.38762242 -46.36007955
4955090000 -1.97825322 -32.89572091 -10.67493145 38.56012488 -11.20588814 35.29389840 -6.39603908 -46.37462351
4960080000 -1.97539769 -32.95798261 -10.66638748 38.59428955 -11.19667645 35.19468475 -6.40088452 -46.43745891
4965070000 -1.97613920 -32.95959075 -10.65855245 38.52168241 -11.19942538 35.15499876 -6.38684163 -46.47631693
4970060000 -1.97073578 -33.00307790 -10.65507852 38.50689783 -11.18960586 35.21537472 -6.41028892 -46.47577078
4975050000 -1.97486282 -32.94387865 -10.64344987 38.58057058 -11.19650156 35.12100324 -6.40642807 -46.47224658
4980040000 -1.97526330 -32.99322661 -10.65561700 38.49345301 -11.18457799 35.18284976 -6.40561546 -46.60532545
4985030000 -1.98288870 -32.98419085 -10.64588659 38.53748917 -11.18092128 35.13512196 -6.40618814 -46.53328843
4990020000 -1.98325348 -32.96936475 -10.65648344 38.41436585 -11.17969024 35.05907680 -6.41777700 -46.65724721
4995010000 -1.99418749 -32.99638416 -10.65232533 38.43789875 -11.17373702 35.10335258 -6.41358842 -46.59896310
5000000000 -1.99123410 -32.95824913 -10.66201339 38.49383441 -11.17509935 35.09819531 -6.41381461 -46.65147766