! Forward-simulated: Re-embedded (raw/measured) — deemb_preext_vce3.5_ib280u.s2p
!   source_deembedded_file = deemb_preext_vce3.5_ib280u.s2p
!   Cpbe_fF = 22.0
!   Cpce_fF = 18.0
!   Cpbc_fF = 5.0
!   Lb_pH = 45.0
!   Lc_pH = 42.0
!   Le_pH = 6.0
!   Rpb_ohm = 0.0
!   Rpc_ohm = 0.0
!   Rpe_ohm = 0.0
# Hz S DB R 50
10000000 -0.15484417 0.19244393 -2.36435520 175.72340331 -57.08039181 5.62776729 0.83667475 -1.77217899
14990000 -0.19332470 -0.41988888 -2.35094618 174.51667611 -42.79466294 51.63267738 0.85643210 -2.85312386
19980000 -0.18658801 -0.50194128 -2.39359023 172.92018803 -42.18199404 45.78163667 0.81577654 -3.98398301
24970000 -0.21212038 -0.35846886 -2.43840792 171.67543825 -42.74506886 59.16621837 0.82065671 -4.81017489
29960000 -0.18909066 -0.50438952 -2.50697926 169.98293927 -40.76014224 64.83425412 0.76610425 -6.02355638
34950000 -0.19495274 -0.61411763 -2.60240862 168.34473073 -39.35653278 61.55090955 0.72551487 -7.01548944
39940000 -0.19454771 -0.73270091 -2.61956737 166.75438812 -38.56556078 67.91190858 0.70485043 -7.99984859
44930000 -0.18204407 -0.75811456 -2.65437108 165.23476289 -37.66524945 65.16819235 0.64960033 -8.91746075
49920000 -0.20392282 -0.84141409 -2.73543241 163.72814703 -37.35347353 66.82413750 0.59699927 -9.90874754
54910000 -0.19198764 -1.02618403 -2.82252816 162.21238354 -36.49741941 66.47524795 0.51402886 -10.56248978
59900000 -0.20086794 -1.04405845 -2.86595147 160.53367207 -36.18893625 64.23171327 0.45148690 -11.61326793
64890000 -0.22302914 -1.20984676 -2.96703140 158.94486943 -35.37023949 63.17813646 0.36769876 -12.39186323
69880000 -0.19217982 -1.16711386 -3.01925869 157.87415587 -34.59638451 63.62063524 0.29661858 -13.21942377
74870000 -0.22201398 -1.42837848 -3.11598137 156.32060821 -34.03275907 64.18886958 0.25012886 -13.96691157
79860000 -0.23766338 -1.51541059 -3.20763220 154.86277463 -33.45282336 63.72381506 0.15749179 -14.74306035
84850000 -0.25030912 -1.61078281 -3.30579996 153.53897893 -33.00684839 62.41944786 0.07905261 -15.46890765
89840000 -0.23954000 -1.74959856 -3.39499691 152.15111788 -32.62978480 61.56414493 -0.02276879 -16.04792474
94830000 -0.26467192 -1.76333357 -3.51328972 151.00271699 -32.36733243 61.27352930 -0.09475672 -16.74582193
99820000 -0.28082933 -1.83017761 -3.60366634 149.76480733 -32.01128905 62.56558317 -0.18153314 -17.40798560
104810000 -0.27519551 -1.94063725 -3.73146308 148.50927391 -31.54204090 61.02033864 -0.27990728 -17.83857934
109800000 -0.29431869 -1.95441108 -3.85005929 147.37227587 -31.33833139 59.72849215 -0.35879825 -18.50618542
114790000 -0.28128843 -2.04681401 -3.92858212 146.22860354 -31.10820125 59.77501941 -0.44958636 -19.04952723
119780000 -0.30023882 -1.99050446 -4.06737427 145.21145155 -30.79040360 59.67979025 -0.53190235 -19.53287133
124770000 -0.28872501 -2.01020397 -4.14769205 144.11134875 -30.59620821 59.29040528 -0.61933742 -20.02823320
129760000 -0.29595209 -2.15870067 -4.24456423 143.02785018 -30.32295626 57.94381683 -0.69834095 -20.38700594
134750000 -0.29675483 -2.17844243 -4.39076674 142.04472344 -30.15770455 58.71131360 -0.79038126 -20.83227895
139740000 -0.29153732 -2.19677759 -4.47726064 141.11643234 -29.90289658 58.03373577 -0.87347704 -21.25282334
144730000 -0.29746405 -2.29566120 -4.57561073 140.09320231 -29.69139939 56.69134400 -0.94762083 -21.58536623
149720000 -0.29762991 -2.32140303 -4.67688645 139.13938452 -29.47186230 56.65618035 -1.02610550 -21.95345924
154710000 -0.29494696 -2.36325323 -4.79957785 138.22635700 -29.32113016 55.82405090 -1.12938604 -22.26703785
159700000 -0.29639270 -2.32816090 -4.92039803 137.52159469 -29.10647710 56.14741344 -1.20978303 -22.58682804
164690000 -0.29487635 -2.40826632 -5.00590596 136.52673306 -28.93827621 55.60707119 -1.29739101 -22.89581488
169680000 -0.30496726 -2.52290538 -5.13792613 135.58818868 -28.76485827 55.09275975 -1.37992648 -23.19597229
174670000 -0.31119743 -2.56890945 -5.24031961 134.75999055 -28.65608117 54.62875449 -1.47130438 -23.43579262
179660000 -0.30835865 -2.66529491 -5.32245200 134.02904292 -28.57321797 55.30886658 -1.56137749 -23.72510916
184650000 -0.32913214 -2.74204601 -5.45315254 133.24566074 -28.49115532 52.86099184 -1.63926467 -23.99515631
189640000 -0.32606009 -2.76524356 -5.53039265 132.34138582 -28.41860481 53.14765026 -1.70890420 -24.23172886
194630000 -0.34601412 -2.80466130 -5.66310658 131.78953634 -28.27073369 53.48310245 -1.81897903 -24.36431261
199620000 -0.36603920 -2.80120298 -5.75001636 130.94688051 -28.16647098 53.34168863 -1.87585293 -24.68153237
204610000 -0.38460121 -2.66112924 -5.89624691 130.35152060 -28.04760495 52.40773152 -1.97579916 -24.74820654
209600000 -0.34133004 -2.84813084 -5.99013520 129.38441298 -27.86703206 52.91830921 -2.06256805 -24.85746226
214590000 -0.35882283 -3.14219796 -6.10391513 128.88501395 -27.73516831 52.65246416 -2.14755298 -24.61852944
219580000 -0.36462182 -3.06714402 -6.16670279 128.28536518 -27.74705848 52.74021253 -2.13125718 -24.95695683
224570000 -0.38434694 -2.97693201 -6.30849371 127.49271652 -27.65326332 52.32976793 -2.22350379 -25.41728620
229560000 -0.37337674 -2.98082998 -6.42298955 127.06271769 -27.46031114 52.39102215 -2.30180700 -25.47933135
234550000 -0.37397015 -2.92988953 -6.51478591 126.51022717 -27.35455416 51.04608390 -2.37265945 -25.54679178
239540000 -0.37524761 -3.06826066 -6.59206574 126.06867228 -27.31586237 51.65781058 -2.42719436 -25.68263239
244530000 -0.36260902 -3.06460607 -6.67443872 125.26850170 -27.13192977 51.19263228 -2.49695511 -25.75164138
249520000 -0.34011928 -3.13398573 -6.75848888 124.94416011 -27.08701928 51.91009332 -2.56096312 -25.88472684
254510000 -0.37446165 -3.03158968 -6.89258545 124.63238169 -27.04415265 51.23437234 -2.58913111 -25.87310444
259500000 -0.34286991 -3.09993500 -6.91882425 123.71816506 -27.05298712 50.78637708 -2.69501758 -26.08931728
264490000 -0.35396092 -3.06175736 -7.04726612 123.42298088 -27.01482636 50.69483722 -2.74202133 -26.06553830
269480000 -0.32982833 -3.17684362 -7.12113906 122.81500038 -26.88563789 51.74962751 -2.80859711 -26.09406279
274470000 -0.34493760 -3.22140986 -7.18060306 122.13102941 -26.72276898 51.28795214 -2.86909366 -26.25194316
279460000 -0.33389886 -3.40256537 -7.26820724 121.70480151 -26.54808461 50.45892028 -2.91204968 -26.19769670
284450000 -0.34369440 -3.32200863 -7.37042540 121.17533932 -26.54524829 50.25748491 -2.98378806 -26.24467288
289440000 -0.35926399 -3.52914774 -7.44134475 120.71943582 -26.59947656 50.17134735 -3.03986633 -26.43533972
294430000 -0.37660225 -3.58736970 -7.54463207 119.99394352 -26.44707966 50.45622159 -3.11474463 -26.45909403
299420000 -0.36735134 -3.65792356 -7.56957378 119.60560460 -26.34918422 50.34876263 -3.18598830 -26.55413599
304410000 -0.38705648 -3.75039324 -7.68503389 119.43869977 -26.27065191 51.04021150 -3.21966506 -26.64763636
309400000 -0.39882480 -3.99400225 -7.79240834 118.59136211 -26.29412445 51.04872563 -3.28059014 -26.57161660
314390000 -0.41638158 -3.80887989 -7.87017823 118.25120147 -26.21092822 50.13402590 -3.34049338 -26.70392635
319380000 -0.43175505 -3.94936852 -7.92360989 117.85098489 -26.14193434 49.96971308 -3.38421868 -26.58258178
324370000 -0.41374682 -3.83436746 -8.00962211 117.37261915 -26.06812107 50.17191396 -3.40421617 -26.56141128
329360000 -0.41788944 -3.82534822 -8.10100399 116.76733231 -26.04624198 50.65380142 -3.43942143 -26.55967817
334350000 -0.43579232 -3.83556699 -8.18828755 116.49281193 -26.02293703 50.56030799 -3.51132196 -26.66713337
339340000 -0.41794740 -3.86805587 -8.27528913 116.02775534 -25.87157725 50.29665490 -3.52981569 -26.65370309
344330000 -0.39853135 -3.73073957 -8.33807129 115.89288227 -25.93968096 50.15287334 -3.60473919 -26.68864471
349320000 -0.38174839 -3.77195775 -8.38283485 115.65690362 -25.70299811 50.80168166 -3.62533028 -26.66981049
354310000 -0.39947935 -3.84571462 -8.47310991 115.15520800 -25.76051186 50.47240969 -3.67121233 -26.67458700
359300000 -0.37924784 -3.75911751 -8.54025101 114.94433996 -25.70923674 50.52988310 -3.71513518 -26.76927277
364290000 -0.37178876 -3.81785862 -8.56924829 114.52589450 -25.57476878 50.67417431 -3.74933422 -26.65727450
369280000 -0.36017399 -3.87075298 -8.62710994 114.10397224 -25.55717835 51.22211353 -3.79398093 -26.69585235
374270000 -0.35134688 -3.93669534 -8.68995677 113.68442301 -25.50382668 50.27710980 -3.84252584 -26.63776633
379260000 -0.33996516 -4.00487567 -8.75216033 113.26274122 -25.41505487 50.55087043 -3.88565102 -26.61224964
384250000 -0.35372773 -4.12797292 -8.80668208 112.86316669 -25.42056476 50.77953010 -3.91601964 -26.67836302
389240000 -0.36024944 -4.22703147 -8.88718261 112.49364442 -25.34919222 50.77026074 -3.95985344 -26.66784754
394230000 -0.35259420 -4.31565952 -8.96233815 112.09038851 -25.23856239 50.01438241 -3.99738566 -26.56023851
399220000 -0.36618715 -4.43315948 -9.00880253 111.67154188 -25.25366578 50.27235879 -4.02366900 -26.62069681
404210000 -0.36097298 -4.48330537 -9.06104407 111.34013189 -25.20536452 50.18633191 -4.08716754 -26.66162716
409200000 -0.38291443 -4.63934801 -9.12994455 110.84356357 -25.13125294 50.27832229 -4.13040465 -26.73837380
414190000 -0.38406327 -4.71798306 -9.20899327 110.59024319 -25.05262860 50.36893639 -4.15791589 -26.72427993
419180000 -0.39418176 -4.82883643 -9.24724916 110.27011871 -24.97566256 50.10426320 -4.19622048 -26.71000455
424170000 -0.41268805 -4.95220834 -9.32420518 109.74580310 -24.96027366 50.22556294 -4.23344436 -26.59694899
429160000 -0.42503437 -4.89632142 -9.38974369 109.38771980 -24.93369905 50.25470395 -4.26247632 -26.65851678
434150000 -0.43457419 -4.94141409 -9.46638234 109.05635148 -24.89796992 50.51728208 -4.29166890 -26.63177220
439140000 -0.43922747 -4.74367746 -9.52032745 108.80512011 -24.86275889 50.41649105 -4.33153265 -26.67665440
444130000 -0.45000593 -4.67068079 -9.59644556 108.69283026 -24.86994674 50.49156039 -4.35271461 -26.61424192
449120000 -0.43582844 -4.63530366 -9.64447416 108.49077305 -24.74833241 50.80195174 -4.38115197 -26.62243219
454110000 -0.41136922 -4.52443457 -9.69412796 108.21905374 -24.68769615 51.01792961 -4.40423862 -26.50602316
459100000 -0.38312511 -4.50310401 -9.71518350 108.18260164 -24.64464222 51.31279392 -4.43246457 -26.48297863
464090000 -0.37166338 -4.58063260 -9.76325635 107.79689045 -24.56366432 51.11604912 -4.45685871 -26.50312329
469080000 -0.34677235 -4.58859248 -9.81017952 107.58490170 -24.47226666 50.73223494 -4.47341963 -26.37291668
474070000 -0.33618736 -4.70119250 -9.84465980 107.12521522 -24.43336870 51.18334882 -4.50543119 -26.46132168
479060000 -0.32553289 -4.79264036 -9.88013332 106.80957162 -24.41481697 50.98560545 -4.52741510 -26.40220057
484050000 -0.32239216 -4.85400651 -9.91584609 106.47773759 -24.39435025 51.13670050 -4.56419186 -26.37631885
489040000 -0.33452296 -4.97919436 -9.98596952 106.18200110 -24.34454006 51.41188786 -4.59730597 -26.34839952
494030000 -0.33227369 -5.09145593 -10.00413472 105.88022689 -24.28068921 50.95720643 -4.63511507 -26.34359096
499020000 -0.33404676 -5.11427690 -10.06394563 105.57926294 -24.26680467 51.12670442 -4.66433766 -26.33397988
504010000 -0.33446245 -5.10853379 -10.08870953 105.32777552 -24.16580928 50.91920246 -4.69343089 -26.20858611
509000000 -0.33870053 -5.41051488 -10.14992050 104.79130886 -24.14595701 51.19666264 -4.71046740 -26.25058162
513990000 -0.34776644 -5.45287194 -10.21244451 104.71544403 -24.10881704 51.30825174 -4.73710329 -26.24928292
518980000 -0.36444776 -5.47607811 -10.23106733 104.37545428 -24.08135941 51.06913019 -4.77270777 -26.23004212
523970000 -0.36791246 -5.69949430 -10.27641178 103.89256803 -23.99358361 51.05251556 -4.80599652 -26.14896729
528960000 -0.39352523 -5.76925619 -10.33134746 103.74476152 -23.98441095 50.89609815 -4.83397520 -26.31895168
533950000 -0.42185309 -5.93735512 -10.41142388 103.40721635 -23.89460833 51.36704739 -4.87755398 -26.20708539
538940000 -0.43946037 -5.90490256 -10.46578117 103.08225614 -23.97680826 50.92760278 -4.86834742 -26.15914863
543930000 -0.45359263 -5.79473476 -10.53534169 102.77608317 -23.90215094 51.34585834 -4.91299447 -26.20459352
548920000 -0.46011742 -5.63782548 -10.59305534 102.61620534 -23.85885260 51.25646136 -4.91104074 -26.10737956
553910000 -0.46247357 -5.54458252 -10.66613308 102.51566885 -23.87267705 51.21577527 -4.93449797 -26.09726934
558900000 -0.43245360 -5.34390461 -10.67489456 102.33833017 -23.84016309 51.55762637 -4.96177334 -26.04769306
563890000 -0.41713044 -5.33898644 -10.70467406 102.25490007 -23.75195978 51.61300102 -4.97352401 -26.03556651
568880000 -0.36545252 -5.26486556 -10.73204306 102.16963865 -23.62522031 51.52089737 -5.00122920 -25.97601741
573870000 -0.34751605 -5.22505451 -10.74253369 101.93871276 -23.63381767 51.52725220 -5.02513995 -25.98368248
578860000 -0.33664379 -5.42408924 -10.76036097 101.59092637 -23.57016722 52.24692905 -5.02602058 -25.92470566
583850000 -0.32125062 -5.48085662 -10.79427085 101.39273102 -23.56731260 52.13784152 -5.06880408 -25.94787403
588840000 -0.31046229 -5.72354397 -10.78669176 100.92750133 -23.44802584 52.08769689 -5.09048734 -25.88564188
593830000 -0.29987158 -5.63986547 -10.83762215 101.05318314 -23.41903832 52.14208391 -5.12223932 -25.87705273
598820000 -0.30773255 -5.86050474 -10.88459277 100.54482695 -23.37741661 51.87494055 -5.13269496 -25.85259519
603810000 -0.31401170 -5.87655952 -10.91965767 100.30818286 -23.32789020 51.80323856 -5.15136536 -25.81373773
608800000 -0.32047702 -6.10835870 -10.94636608 99.78439540 -23.24037792 51.73253702 -5.17008328 -25.76276681
613790000 -0.32403972 -6.18072253 -10.98118844 99.68496027 -23.24295386 51.83514213 -5.19215147 -25.67648198
618780000 -0.33580325 -6.29738515 -11.01816287 99.40401302 -23.25672030 51.53215368 -5.21247893 -25.78111795
623770000 -0.34787759 -6.47609640 -11.07970516 99.01895242 -23.17757525 52.21824069 -5.22642284 -25.74781269
628760000 -0.35440659 -6.57849539 -11.11468750 98.72454688 -23.18378380 51.38324771 -5.25952046 -25.67676079
633750000 -0.36440983 -6.68815396 -11.13597652 98.69719475 -23.07382309 51.88748594 -5.23491556 -25.75943836
638740000 -0.39703162 -6.78921862 -11.17924613 98.23245836 -23.07642846 51.49103551 -5.28419813 -25.76545321
643730000 -0.40696720 -6.78503013 -11.20564713 98.11706255 -23.04697031 51.98589060 -5.28398358 -25.76710984
648720000 -0.43128034 -6.83109442 -11.25346170 97.90333701 -23.00065797 51.64766961 -5.32004888 -25.87248894
653710000 -0.46970510 -6.77275438 -11.32485321 97.65946796 -23.05441458 51.71087067 -5.34565082 -25.74198962
658700000 -0.46848675 -6.66245044 -11.35844821 97.49498086 -23.04316043 52.58813975 -5.34894851 -25.71569440
663690000 -0.47286479 -6.53107150 -11.40652360 97.34805096 -22.97725322 52.11570084 -5.38521417 -25.68899920
668680000 -0.45089216 -6.22794310 -11.40198411 97.48266083 -22.94313110 52.99865954 -5.39008058 -25.75181896
673670000 -0.42540390 -6.15378301 -11.43606027 97.16973345 -22.89468987 52.48825678 -5.38361006 -25.71002780
678660000 -0.40819901 -6.12891603 -11.46254430 97.14560511 -22.82079810 52.51943979 -5.40339751 -25.62579459
683650000 -0.36526034 -6.15024120 -11.45510417 96.96841562 -22.76410060 52.60695734 -5.41059166 -25.66056752
688640000 -0.34268302 -6.22079960 -11.47862945 96.62865383 -22.73883076 52.75656366 -5.45198762 -25.65572720
693630000 -0.33544719 -6.38957642 -11.50836895 96.45987851 -22.66765280 52.43175997 -5.45112818 -25.55554953
698620000 -0.32472556 -6.40537241 -11.54135301 96.20439429 -22.56891121 52.44266213 -5.47312445 -25.54652582
703610000 -0.31695920 -6.49730331 -11.55149642 95.87373755 -22.56661541 52.82138277 -5.50559360 -25.54058726
708600000 -0.31069079 -6.68557839 -11.58366963 95.61681631 -22.56669853 52.72160712 -5.51340367 -25.56885274
713590000 -0.31748365 -6.74330533 -11.62235014 95.41523327 -22.52303491 52.68503851 -5.54040120 -25.58370530
718580000 -0.31419679 -6.96960429 -11.64055558 94.97938904 -22.51540080 52.75981374 -5.55849374 -25.52747211
723570000 -0.32529981 -7.06544483 -11.64574720 95.07889455 -22.38348671 52.39600283 -5.57042280 -25.53143600
728560000 -0.33027042 -7.23223692 -11.67937528 94.62271794 -22.37992385 52.68416711 -5.57907189 -25.48345449
733550000 -0.35010851 -7.30763379 -11.69324660 94.47198738 -22.33395569 52.32741998 -5.60989866 -25.54407912
738540000 -0.37147478 -7.47857340 -11.73977297 94.07933445 -22.38987263 52.75144983 -5.61497164 -25.58747474
743530000 -0.38509976 -7.59930583 -11.76681326 93.94569429 -22.32287364 52.51900725 -5.62827318 -25.46905805
748520000 -0.40094107 -7.70282056 -11.80826051 93.69505590 -22.30065024 52.78500837 -5.64464523 -25.46958780
753510000 -0.42267908 -7.75323181 -11.84849643 93.54513199 -22.27073326 52.39183786 -5.64170335 -25.52044226
758500000 -0.44935529 -7.79231547 -11.86841498 93.35928735 -22.23858261 52.92291420 -5.65926114 -25.65045915
763490000 -0.46730320 -7.77499905 -11.91691235 93.21459808 -22.22961288 53.03851366 -5.66721916 -25.49473182
768480000 -0.49037939 -7.70159226 -11.94630285 93.06338198 -22.18151257 52.85413187 -5.67906076 -25.51977968
773470000 -0.48087854 -7.41162241 -11.97930346 93.00684702 -22.16368484 53.12771819 -5.68948961 -25.50459470
778460000 -0.47436715 -7.20009009 -11.98043386 92.97159887 -22.14545391 53.16951494 -5.69345483 -25.50585149
783450000 -0.43641912 -7.13338656 -11.99679287 92.91201504 -22.12748115 53.23377335 -5.68888523 -25.45875256
788440000 -0.41195415 -7.06878158 -11.98634866 92.65017871 -21.99172363 53.37248618 -5.69812765 -25.46175314
793430000 -0.38505855 -7.18408122 -12.02809203 92.46344856 -21.97385793 53.03881203 -5.73055170 -25.46471245
798420000 -0.36845341 -7.24648267 -12.01388697 92.35872161 -21.93192730 53.43848563 -5.72719520 -25.36285138
803410000 -0.35920318 -7.41126788 -12.03102922 92.01507646 -21.88478428 53.36180928 -5.75010533 -25.39806196
808400000 -0.35042946 -7.44878060 -12.04767843 91.77159622 -21.87592205 53.24546173 -5.76401944 -25.38043191
813390000 -0.36291856 -7.58524554 -12.07122282 91.56999891 -21.79900135 53.18581940 -5.77723376 -25.28219360
818380000 -0.35286707 -7.68402719 -12.09457388 91.38725965 -21.78934604 53.29808193 -5.79874047 -25.33134559
823370000 -0.36896614 -7.76658148 -12.15083018 91.21180309 -21.75237659 53.41525312 -5.82106973 -25.34067561
828360000 -0.36593394 -7.97078552 -12.15997988 91.00089204 -21.69473850 52.98150410 -5.83262183 -25.33001791
833350000 -0.37944014 -8.02841579 -12.18144417 90.71274791 -21.67493924 52.89218942 -5.85345701 -25.29950602
838340000 -0.38175444 -8.20345183 -12.17285521 90.54005490 -21.70551519 53.32003956 -5.85132713 -25.37999666
843330000 -0.39685212 -8.28013725 -12.21540034 90.26247025 -21.64762150 53.36446903 -5.87087436 -25.30983755
848320000 -0.40407816 -8.37057572 -12.22194086 90.20223947 -21.61809069 53.20102056 -5.87675430 -25.38707023
853310000 -0.42461171 -8.47940136 -12.27116053 89.95191457 -21.61044182 53.50794013 -5.89235314 -25.32925472
858300000 -0.43285682 -8.58217887 -12.29591681 89.81361404 -21.57852536 53.13843485 -5.89240252 -25.32449019
863290000 -0.44560128 -8.75685733 -12.30699400 89.49412239 -21.52884649 53.10339523 -5.89466431 -25.33306759
868280000 -0.47364502 -8.76610496 -12.33781389 89.42710419 -21.47812871 52.94720334 -5.90046848 -25.29455249
873270000 -0.50105330 -8.69260465 -12.33302749 89.29329876 -21.50599121 52.92960741 -5.90030812 -25.32695607
878260000 -0.50476245 -8.54431849 -12.37471438 89.22269177 -21.48986838 53.61125087 -5.90226330 -25.36170778
883250000 -0.51444165 -8.39077214 -12.40829767 89.15562804 -21.48801117 53.45656506 -5.91690023 -25.36601143
888240000 -0.50256516 -8.21198318 -12.42504745 89.10153604 -21.37723825 53.76405607 -5.93724915 -25.30506562
893230000 -0.46853795 -8.08373927 -12.42193768 89.11770857 -21.29804417 53.69514672 -5.93008808 -25.30555866
898220000 -0.44937394 -8.02393710 -12.44409242 88.94253119 -21.30573471 53.53159652 -5.95449635 -25.23666299
903210000 -0.42338719 -8.03001862 -12.43274098 88.77298394 -21.27161955 53.87099550 -5.97226360 -25.23625621
908200000 -0.40053880 -8.19452056 -12.41619397 88.57102558 -21.24536246 53.72246604 -5.98582432 -25.25675848
913190000 -0.38811302 -8.26415338 -12.44812554 88.27031882 -21.13286362 53.66160368 -5.99181161 -25.23687384
918180000 -0.38623244 -8.36970298 -12.44757534 88.10865501 -21.13953333 53.81433928 -5.99706608 -25.23858073
923170000 -0.38500913 -8.49240854 -12.46100527 87.97203042 -21.10318469 53.27727161 -6.00189543 -25.13509332
928160000 -0.41243868 -8.62667245 -12.50154182 87.52963178 -21.14839688 53.54693752 -6.01076669 -25.26317483
933150000 -0.40352897 -8.77952581 -12.49051210 87.50706849 -21.05292935 53.42376611 -6.02433967 -25.22893257
938140000 -0.41457767 -8.81226028 -12.51622757 87.31654495 -21.03305965 53.52271324 -6.03191552 -25.24487038
943130000 -0.42957035 -8.88488274 -12.52433431 87.05778370 -21.01443223 53.45069145 -6.06380857 -25.26007157
948120000 -0.43806539 -9.02227782 -12.56137284 86.92532794 -20.97421824 53.51211507 -6.06261509 -25.27990386
953110000 -0.45509223 -9.14015837 -12.59039062 86.75714527 -20.96755449 53.57847999 -6.06785882 -25.31065712
958100000 -0.46917983 -9.27710555 -12.62250282 86.57827036 -20.99784197 53.68456752 -6.06327575 -25.24628815
963090000 -0.46712989 -9.32559657 -12.58363213 86.48559643 -20.91111875 53.62576242 -6.07272026 -25.29277487
968080000 -0.46579262 -9.44379429 -12.61223401 86.35489947 -20.88763754 53.76520233 -6.07899208 -25.36150568
973070000 -0.50137381 -9.44889970 -12.66298289 86.14000021 -20.89402344 53.75662372 -6.09133697 -25.39555592
978060000 -0.51768198 -9.61877193 -12.68393914 85.94917509 -20.81682992 53.57590833 -6.08866711 -25.39118723
983050000 -0.54551435 -9.52920353 -12.71501491 85.85575040 -20.85901793 53.98563390 -6.09039584 -25.42096345
988040000 -0.54580373 -9.44954813 -12.70001550 85.82373137 -20.81485440 53.93015206 -6.09584885 -25.45896065
993030000 -0.55259642 -9.22851417 -12.71777532 85.89050844 -20.74642130 53.91761489 -6.10942807 -25.43637956
998020000 -0.55763711 -9.08524068 -12.77003505 85.88189822 -20.75229021 53.94076569 -6.10515983 -25.37047244
1003010000 -0.52775607 -8.97167693 -12.72970472 85.68515979 -20.66882496 54.16348458 -6.11912837 -25.44677713
1008000000 -0.50561937 -8.91248988 -12.74172759 85.60693327 -20.67006767 53.89859972 -6.13418611 -25.33838064
1012990000 -0.49176702 -8.89763518 -12.72159008 85.54821760 -20.60158774 54.11112904 -6.12944755 -25.38954175
1017980000 -0.45330267 -8.99762442 -12.74434598 85.16697678 -20.52770042 54.02741455 -6.11725005 -25.33189105
1022970000 -0.45093125 -9.14186765 -12.75707741 84.97110670 -20.49306352 54.03998280 -6.12573319 -25.31477479
1027960000 -0.45147999 -9.23707092 -12.74009165 84.79450315 -20.47511024 53.93558646 -6.15583001 -25.32227710
1032950000 -0.45043641 -9.32293565 -12.75631675 84.75200724 -20.46561791 53.96111802 -6.17729191 -25.29553352
1037940000 -0.46700377 -9.39275424 -12.79653311 84.42125101 -20.41506372 53.86576777 -6.18134244 -25.30425583
1042930000 -0.48488615 -9.53936422 -12.79104568 84.25410895 -20.41325045 53.69799879 -6.18280129 -25.33931843
1047920000 -0.48023796 -9.64807633 -12.81315074 84.22673827 -20.39247038 53.71715102 -6.17921980 -25.24489975
1052910000 -0.49477266 -9.74833509 -12.83771786 83.92804927 -20.38482194 53.62031961 -6.18330540 -25.39279202
1057900000 -0.51447260 -9.81087451 -12.84418952 83.95002753 -20.39160158 53.71075986 -6.20828070 -25.31847435
1062890000 -0.50760908 -9.99341498 -12.85879033 83.51653339 -20.32238460 53.86736632 -6.23083735 -25.47426503
1067880000 -0.52275828 -9.99976139 -12.85681082 83.69847682 -20.30881559 53.85079068 -6.21880700 -25.42640676
1072870000 -0.54131622 -10.14391037 -12.89750640 83.40576645 -20.28773150 53.79103043 -6.23179398 -25.39151535
1077860000 -0.55324699 -10.24156400 -12.91927611 83.31894484 -20.27022844 53.98247726 -6.23131882 -25.43491248
1082850000 -0.55583135 -10.34627957 -12.91922496 83.32321713 -20.25131153 54.12833034 -6.25570975 -25.46003547
1087840000 -0.56822964 -10.35746191 -12.93256261 83.16541736 -20.20704450 54.11962873 -6.22411421 -25.51781450
1092830000 -0.58844432 -10.36274205 -12.93940011 83.02199169 -20.21859884 54.11195954 -6.21461179 -25.47942424
1097820000 -0.59433318 -10.24250031 -12.94841484 83.00152541 -20.21964782 54.13398978 -6.23139305 -25.56588275
1102810000 -0.61074564 -10.16293835 -12.97037270 82.98249405 -20.18864658 54.26799580 -6.23026794 -25.57592050
1107800000 -0.59849962 -10.05588651 -12.96093877 82.77136648 -20.11358188 54.19797922 -6.23151426 -25.55521208
1112790000 -0.58792165 -9.92602998 -12.97281591 82.70215139 -20.04969499 54.25314147 -6.24909779 -25.51194277
1117780000 -0.57663579 -9.90311986 -12.95786233 82.50015158 -20.01283473 54.59625407 -6.25158661 -25.54093326
1122770000 -0.55330277 -9.89262823 -12.94168902 82.49054650 -19.99092702 54.23074022 -6.26087592 -25.57485542
1127760000 -0.54328496 -9.97448305 -12.96104798 82.20593687 -19.94467411 54.20157281 -6.27371365 -25.43561855
1132750000 -0.54322710 -10.00544838 -12.95796347 82.04071649 -19.92723983 54.15288005 -6.28626203 -25.49290241
1137740000 -0.54520542 -10.09519977 -12.96987917 81.95129511 -19.90033685 54.38207193 -6.29916674 -25.56484136
1142730000 -0.53719600 -10.18951671 -12.96458811 81.77088110 -19.92107468 53.99725756 -6.30647526 -25.51489561
1147720000 -0.55976431 -10.30557736 -12.99272751 81.66354761 -19.85248012 54.09733188 -6.31293385 -25.50278400
1152710000 -0.56128339 -10.35906193 -13.00001606 81.50829437 -19.85296883 54.21103057 -6.31690789 -25.49890783
1157700000 -0.56361167 -10.42979015 -12.98371327 81.33653233 -19.80896262 53.96669590 -6.33926321 -25.53354944
1162690000 -0.58247808 -10.53326623 -13.02216772 81.27901967 -19.79732866 54.24679532 -6.35577304 -25.70959330
1167680000 -0.58261698 -10.63781267 -13.05424696 81.09072216 -19.76426610 53.97588650 -6.35405583 -25.68419540
1172670000 -0.59424002 -10.68461672 -13.05615070 81.07512958 -19.75664319 54.23116579 -6.36666924 -25.72414148
1177660000 -0.60535051 -10.70780734 -13.03604689 81.01815888 -19.73886515 54.24514034 -6.36442873 -25.71416140
1182650000 -0.60165632 -10.80041956 -13.06998949 80.75028725 -19.72186755 54.32658608 -6.36321454 -25.78509183
1187640000 -0.60912465 -10.89301717 -13.06388629 80.70672566 -19.67930885 54.03451155 -6.35631206 -25.82102561
1192630000 -0.61664473 -10.95486498 -13.06243728 80.70114581 -19.66454080 54.22880253 -6.36324750 -25.84786484
1197620000 -0.63144860 -11.02028438 -13.08639276 80.65198186 -19.66982518 54.16830096 -6.36370577 -25.88172381
1202610000 -0.63325832 -11.06496943 -13.08572314 80.37394429 -19.64890705 54.42369850 -6.38032670 -25.84239862
1207600000 -0.64489460 -11.00094169 -13.13306428 80.32377463 -19.64093046 54.33660061 -6.38488192 -25.89614304
1212590000 -0.64780327 -10.99190792 -13.13658787 80.27924026 -19.56855400 54.30767639 -6.36043105 -25.87792050
1217580000 -0.64918165 -10.86740585 -13.11915267 80.11820350 -19.52787134 54.42171286 -6.38910295 -25.84125028
1222570000 -0.64780914 -10.82710549 -13.14186914 80.09140538 -19.51614864 54.55740940 -6.39575583 -25.82720486
1227560000 -0.64191168 -10.71101379 -13.12456311 80.01633387 -19.43874019 54.38132873 -6.37617808 -25.77860752
1232550000 -0.61633181 -10.75246081 -13.10738557 79.79435121 -19.45701564 54.60355694 -6.40336433 -25.81222143
1237540000 -0.61758319 -10.80603922 -13.11756693 79.73905614 -19.42031223 54.41431354 -6.40627524 -25.80708203
1242530000 -0.61518848 -10.83699645 -13.14208203 79.68595679 -19.40458700 54.44130029 -6.42727343 -25.85511243
1247520000 -0.62407209 -10.89822296 -13.13039837 79.52063264 -19.40334000 54.50962147 -6.41474995 -25.86612531
1252510000 -0.62086488 -11.00898416 -13.12115506 79.27403765 -19.36961797 54.43717376 -6.43996899 -25.87214525
1257500000 -0.63312621 -11.02759004 -13.15479080 79.23426555 -19.34844808 54.33882642 -6.43689420 -25.90646159
1262490000 -0.64019714 -11.10303550 -13.14577951 79.09384992 -19.29806563 54.27684938 -6.44154192 -25.94086413
1267480000 -0.65222022 -11.18889075 -13.14964796 78.97937582 -19.28854296 54.31308295 -6.42922163 -26.00937333
1272470000 -0.66359179 -11.26276956 -13.18357107 78.88932947 -19.27144746 54.38558929 -6.42486225 -25.93909016
1277460000 -0.66505583 -11.38249386 -13.15367896 78.54480678 -19.23629490 54.49126482 -6.43979142 -26.07002673
1282450000 -0.67680755 -11.41655864 -13.18339002 78.68547582 -19.21442200 54.34035945 -6.46196503 -26.15778805
1287440000 -0.67404777 -11.44405889 -13.19802233 78.59606030 -19.17194974 54.45334222 -6.46892026 -26.20525298
1292430000 -0.67708557 -11.54406954 -13.21914187 78.43768786 -19.18991024 54.39496998 -6.45920018 -26.19824918
1297420000 -0.68285991 -11.60287070 -13.19849631 78.52294256 -19.17024803 54.56382307 -6.45878321 -26.20169314
1302410000 -0.67855286 -11.61826938 -13.19549150 78.42494882 -19.12533611 54.62905005 -6.45839092 -26.28411300
1307400000 -0.68608617 -11.74678288 -13.19022473 78.31470461 -19.12469922 54.48899432 -6.46859416 -26.25318124
1312390000 -0.68836542 -11.72772774 -13.20579759 78.17443712 -19.11988753 54.52446802 -6.47864590 -26.27033291
1317380000 -0.69705875 -11.64297599 -13.21600970 78.20746380 -19.07102422 54.60361331 -6.47242147 -26.34985969
1322370000 -0.70046883 -11.69084163 -13.22464080 78.06753175 -19.07689038 54.64173448 -6.49193253 -26.27319268
1327360000 -0.69734949 -11.60050247 -13.23455887 77.92848544 -19.03468508 54.57733061 -6.48738110 -26.24992286
1332350000 -0.69185190 -11.52561462 -13.21845483 77.95150410 -18.97373279 54.71424821 -6.46679699 -26.21376351
1337340000 -0.69104655 -11.55423982 -13.20985462 77.75297057 -18.93050406 54.64336108 -6.48843468 -26.22116167
1342330000 -0.68546373 -11.57420541 -13.17211473 77.56796976 -18.92966899 54.35942553 -6.50174176 -26.24635484
1347320000 -0.68043213 -11.57375947 -13.19392567 77.48049080 -18.91425262 54.71232153 -6.50186767 -26.29867694
1352310000 -0.69333160 -11.64815201 -13.19795620 77.43261169 -18.87535815 54.37753620 -6.49593435 -26.28938451
1357300000 -0.68833205 -11.71419640 -13.21091584 77.25750277 -18.86194554 54.47336487 -6.53068740 -26.34724551
1362290000 -0.69916686 -11.74421972 -13.21867247 77.15332946 -18.84517487 54.44627236 -6.52319871 -26.31549877
1367280000 -0.71018404 -11.85921294 -13.23661815 76.98722314 -18.82407518 54.59299080 -6.54611235 -26.30888703
1372270000 -0.71073554 -11.95344089 -13.23791932 76.76657198 -18.76693531 54.50345419 -6.53800546 -26.36326075
1377260000 -0.73421705 -11.96170106 -13.25365150 76.83170348 -18.79748947 54.33229813 -6.54281425 -26.46566229
1382250000 -0.73600950 -11.98535463 -13.24189788 76.73820780 -18.80037017 54.44418632 -6.55275073 -26.39049698
1387240000 -0.73896867 -12.04819897 -13.26793502 76.77560029 -18.72639466 54.48739897 -6.55422371 -26.41281739
1392230000 -0.73774173 -12.19213550 -13.26310801 76.64545624 -18.73168742 54.41134984 -6.55726445 -26.49070236
1397220000 -0.72868017 -12.18027932 -13.26569261 76.53676903 -18.72740733 54.54046609 -6.55406102 -26.52498013
1402210000 -0.73830358 -12.32716780 -13.26301581 76.49899346 -18.69829568 54.57229999 -6.55617651 -26.55273315
1407200000 -0.73950411 -12.37570374 -13.26611846 76.32874307 -18.65159303 54.45107194 -6.55426273 -26.66311829
1412190000 -0.73326583 -12.42288444 -13.24954137 76.29940754 -18.62331310 54.80149554 -6.52552737 -26.55231919
1417180000 -0.73098884 -12.51879550 -13.25069828 76.17581783 -18.59759833 54.40972883 -6.54760516 -26.66584295
1422170000 -0.73392932 -12.46650739 -13.24543228 76.11965996 -18.54581507 54.72245580 -6.54719606 -26.59420305
1427160000 -0.74239026 -12.45198194 -13.23974125 76.04666942 -18.56541899 54.38409569 -6.56734528 -26.73493119
1432150000 -0.73841686 -12.56243714 -13.24103792 76.01258591 -18.54673840 54.65689661 -6.55722521 -26.59892985
1437140000 -0.74749570 -12.44777947 -13.27031598 75.91921844 -18.49169688 54.56979085 -6.57937736 -26.64867968
1442130000 -0.74490417 -12.40212639 -13.24741841 75.89445871 -18.51498740 54.62117439 -6.58862813 -26.72120564
1447120000 -0.74636767 -12.49742960 -13.23559470 75.60191275 -18.45911900 54.79254547 -6.58229682 -26.70650961
1452110000 -0.74861953 -12.40628008 -13.24354474 75.64777925 -18.44136057 54.56323323 -6.59025694 -26.75406332
1457100000 -0.74334729 -12.47859531 -13.23196062 75.39550688 -18.39335875 54.32629746 -6.60895609 -26.83525292
1462090000 -0.75675082 -12.48187358 -13.23891115 75.41961637 -18.38012090 54.49546982 -6.59545604 -26.76510922
1467080000 -0.75145085 -12.54369979 -13.22524815 75.31049319 -18.35504688 54.49956413 -6.59395696 -26.86822230
1472070000 -0.76774173 -12.55364591 -13.24784903 75.03302639 -18.34202474 54.45972190 -6.60804865 -26.87857527
1477060000 -0.77424142 -12.68433563 -13.27120096 75.09164081 -18.32098568 54.51814572 -6.60652640 -26.99924377
1482050000 -0.78298208 -12.70023477 -13.25252471 75.03480493 -18.31834324 54.43700975 -6.61855669 -26.90893233
1487040000 -0.78615196 -12.78420532 -13.25376857 74.91876391 -18.30674558 54.39175627 -6.62788878 -26.98028768
1492030000 -0.78474208 -12.79197216 -13.26570032 74.90297522 -18.28823788 54.55360234 -6.63218368 -26.99350879
1497020000 -0.79483413 -12.83189074 -13.26221757 74.73408142 -18.26033110 54.71977182 -6.64537018 -27.10566157
1502010000 -0.78716397 -12.90269577 -13.25659202 74.63452771 -18.22893157 54.53847091 -6.63659766 -27.17959770
1507000000 -0.77542904 -13.00257919 -13.24387132 74.58980987 -18.19584155 54.48743539 -6.63195136 -27.10283532
1511990000 -0.78499014 -13.01694210 -13.26809917 74.56437450 -18.16778889 54.65270187 -6.62847192 -27.10883897
1516980000 -0.77501166 -13.07155815 -13.26563454 74.47872935 -18.14822510 54.46539628 -6.62836336 -27.26213819
1521970000 -0.77322048 -13.10940949 -13.24297863 74.39466107 -18.11771659 54.65977964 -6.63309723 -27.22152543
1526960000 -0.76335115 -13.15347142 -13.24718329 74.41612890 -18.10726540 54.61959593 -6.62201136 -27.28702525
1531950000 -0.76095429 -13.27262599 -13.24672566 74.23551153 -18.08846368 54.54129562 -6.62900041 -27.25387064
1536940000 -0.76858335 -13.25850841 -13.24844351 74.14411989 -18.05988436 54.42795433 -6.63656438 -27.25373279
1541930000 -0.77230671 -13.25157217 -13.24226051 74.02402178 -18.04530946 54.36507609 -6.63703957 -27.22033612
1546920000 -0.76331314 -13.30890100 -13.22880429 74.01262605 -18.01655848 54.42378636 -6.64340466 -27.32176850
1551910000 -0.77831217 -13.28396041 -13.21005768 73.82700128 -17.95851913 54.46557698 -6.64744505 -27.21764866
1556900000 -0.77923340 -13.27660125 -13.21524611 73.76501301 -17.97648622 54.40755418 -6.65865369 -27.40857607
1561890000 -0.78529970 -13.27096470 -13.22690457 73.79110016 -17.97445697 54.40946880 -6.65625745 -27.39232969
1566880000 -0.79528399 -13.26848831 -13.20841438 73.75298416 -17.94183651 54.50772237 -6.67144545 -27.31187649
1571870000 -0.80088418 -13.36209185 -13.20469113 73.40229943 -17.90180022 54.45412425 -6.68414706 -27.42298080
1576860000 -0.81515404 -13.36235026 -13.22622227 73.47297891 -17.89457268 54.38127730 -6.66569244 -27.35867297
1581850000 -0.82497828 -13.43959135 -13.22839132 73.35159872 -17.88810126 54.36401519 -6.68092931 -27.48291767
1586840000 -0.82448017 -13.46640909 -13.23301222 73.41680348 -17.87064646 54.41384843 -6.67705483 -27.47322109
1591830000 -0.83246359 -13.53094239 -13.23638995 73.26983461 -17.84546874 54.41969266 -6.67455522 -27.51801166
1596820000 -0.83376415 -13.63614085 -13.22983904 73.17183397 -17.80724445 54.53781035 -6.67211323 -27.51025422
1601810000 -0.82712679 -13.60239958 -13.21365406 73.03621373 -17.78557140 54.57001535 -6.68347049 -27.62881219
1606800000 -0.83153587 -13.66839340 -13.21940052 73.04807971 -17.79793306 54.25133953 -6.68531284 -27.60331962
1611790000 -0.82211474 -13.75916484 -13.22178825 72.95159207 -17.73957394 54.62063935 -6.69848966 -27.71321179
1616780000 -0.82617702 -13.88586565 -13.24384197 72.84445957 -17.73183270 54.43888989 -6.68929345 -27.76522086
1621770000 -0.81747037 -13.90915387 -13.19878999 72.81807353 -17.71453191 54.56643751 -6.68182270 -27.66389022
1626760000 -0.81622994 -13.84381205 -13.20326046 72.82486309 -17.70103372 54.64576147 -6.69642501 -27.78186370
1631750000 -0.81475160 -13.96278169 -13.21241803 72.65437504 -17.64050529 54.38872080 -6.69527887 -27.78860594
1636740000 -0.79658362 -13.96263939 -13.18719275 72.59318858 -17.64390521 54.30286121 -6.69167409 -27.86858034
1641730000 -0.79105197 -14.02808570 -13.18584874 72.44089439 -17.62183111 54.39354376 -6.69843286 -27.77789473
1646720000 -0.79504266 -14.08430224 -13.19653473 72.39237637 -17.58631831 54.28521139 -6.72563950 -27.78495811
1651710000 -0.79707024 -14.12168884 -13.18375531 72.37703243 -17.56315416 54.26585600 -6.71676811 -27.86158094
1656700000 -0.79727118 -14.14916262 -13.19098364 72.08111743 -17.55053659 54.32567266 -6.72615388 -27.84242550
1661690000 -0.80441469 -14.18139642 -13.18745113 72.05766562 -17.53051711 54.25971014 -6.73185630 -27.90187841
1666680000 -0.80986786 -14.20224033 -13.16321589 71.98198068 -17.51138334 54.23876593 -6.72947968 -27.82693501
1671670000 -0.81292810 -14.17847486 -13.17790130 71.78545658 -17.50049866 54.24512651 -6.74238402 -27.89502500
1676660000 -0.82648182 -14.25392875 -13.18904782 71.84785786 -17.49846509 54.21267316 -6.74069544 -27.92917353
1681650000 -0.82032166 -14.26805260 -13.18819532 71.75261001 -17.46480840 54.21052643 -6.75763315 -27.98503077
1686640000 -0.83054676 -14.35196132 -13.20027676 71.69471262 -17.45103771 54.23566070 -6.76516337 -28.07049030
1691630000 -0.83971625 -14.32607483 -13.18513537 71.58432566 -17.42781742 54.16488381 -6.76847618 -28.07176808
1696620000 -0.84103849 -14.34284100 -13.17830050 71.48496759 -17.42699394 54.13014570 -6.77195561 -28.10355177
1701610000 -0.85438042 -14.42679909 -13.19143308 71.43565800 -17.41003658 54.22367474 -6.76806524 -28.14954789
1706600000 -0.85560783 -14.50128097 -13.14721252 71.53895277 -17.39214057 54.20327575 -6.76424370 -28.21154944
1711590000 -0.85800718 -14.54300990 -13.17897805 71.43364489 -17.31713690 54.37405964 -6.77786006 -28.30931628
1716580000 -0.84697466 -14.59593392 -13.16482132 71.39746487 -17.31494143 54.21988827 -6.76423607 -28.18641055
1721570000 -0.84573694 -14.64448060 -13.17580618 71.31237464 -17.28791895 54.15511909 -6.76744271 -28.36283001
1726560000 -0.84614881 -14.73893153 -13.15935426 71.22519360 -17.30073048 54.32107511 -6.78450300 -28.30150102
1731550000 -0.83719486 -14.80266882 -13.14669469 71.25792623 -17.26908563 54.43277265 -6.76567408 -28.32821052
1736540000 -0.82699003 -14.83341878 -13.13319759 71.09047763 -17.24029446 54.13663234 -6.75506936 -28.29054483
1741530000 -0.81853439 -14.89364346 -13.12466700 70.99430353 -17.23187110 53.94776242 -6.75749900 -28.36598818
1746520000 -0.81226737 -14.88555479 -13.12581929 70.89736616 -17.21520062 54.07285054 -6.76515374 -28.38895652
1751510000 -0.81744525 -14.94269997 -13.11557628 70.96950740 -17.20537883 53.95356955 -6.78538245 -28.42509896
1756500000 -0.81176022 -14.95294778 -13.12075728 70.68134561 -17.16663110 54.31434389 -6.78107316 -28.48656844
1761490000 -0.80750050 -15.04208175 -13.09437967 70.53313252 -17.14245024 53.99342685 -6.79664456 -28.47958361
1766480000 -0.82122891 -15.07246429 -13.10180663 70.52901112 -17.12114878 53.93043775 -6.80047605 -28.45658176
1771470000 -0.82732488 -15.07206712 -13.10762241 70.50135448 -17.13804008 53.96589521 -6.79935995 -28.59768778
1776460000 -0.82733315 -15.12953514 -13.11250929 70.37726107 -17.10062014 53.89801805 -6.80606026 -28.51730331
1781450000 -0.84388565 -15.13865330 -13.11330491 70.22753438 -17.08644431 53.91708310 -6.82919273 -28.58193715
1786440000 -0.84225743 -15.20079160 -13.12548742 70.20782391 -17.07152022 53.84801721 -6.83340484 -28.65523821
1791430000 -0.85454711 -15.23545998 -13.10660205 70.11885623 -17.04586841 53.62838049 -6.82163616 -28.60995802
1796420000 -0.86040226 -15.22109261 -13.09903531 70.05473081 -17.00446342 53.80512232 -6.84149324 -28.85001425
1801410000 -0.86661977 -15.26248165 -13.10073812 69.89256165 -17.01750381 53.94786060 -6.84492375 -28.77417829
1806400000 -0.88652988 -15.27452535 -13.11547409 69.88734939 -16.98007747 53.92031818 -6.83926914 -28.90044448
1811390000 -0.87978034 -15.34427327 -13.11121309 69.78481959 -16.97530040 54.10232346 -6.83494451 -28.81335391
1816380000 -0.87659203 -15.46588038 -13.11024698 69.87701695 -16.95889035 54.00030566 -6.82912724 -28.92057488
1821370000 -0.86721928 -15.48070869 -13.07552495 69.80076099 -16.91398121 53.88096446 -6.83819490 -29.02014406
1826360000 -0.87056365 -15.48563689 -13.09734166 69.86551697 -16.91220700 53.86859112 -6.82482690 -28.95544681
1831350000 -0.86517163 -15.59750350 -13.09565987 69.60308215 -16.89633194 53.90410996 -6.81824099 -29.11226746
1836340000 -0.85755861 -15.63968496 -13.07959141 69.49214225 -16.88197618 54.00693955 -6.82620545 -29.01364930
1841330000 -0.86465813 -15.66624730 -13.06484883 69.46549056 -16.83935451 53.77537741 -6.82084112 -29.05009517
1846320000 -0.84227986 -15.78720586 -13.03522394 69.43602267 -16.84104241 53.65141139 -6.81226003 -29.15931091
1851310000 -0.83043650 -15.80725609 -13.05440095 69.28432952 -16.80016086 53.86887081 -6.83428017 -29.13017299
1856300000 -0.83293582 -15.85707632 -13.05598913 69.13673782 -16.77170320 53.69704479 -6.83884724 -29.07315030
1861290000 -0.83491939 -15.90803616 -13.03771794 69.17958879 -16.77523138 53.52442919 -6.84585844 -29.06919185
1866280000 -0.82628590 -15.90058898 -13.05440957 69.01981118 -16.75882533 53.48321062 -6.85380443 -28.99454028
1871270000 -0.82749572 -16.02618858 -13.03603131 68.87154635 -16.73292629 53.71994620 -6.86221447 -29.02056759
1876260000 -0.84462908 -16.02384204 -13.04615276 68.73330247 -16.72664483 53.55747999 -6.85487662 -29.10143998
1881250000 -0.83677360 -16.08040104 -13.02896823 68.73262137 -16.70316349 53.40378832 -6.86415696 -29.12244446
1886240000 -0.85195340 -16.08876880 -13.04426204 68.55950770 -16.69955554 53.53863996 -6.88773509 -29.19355479
1891230000 -0.86376515 -16.04388714 -13.04058433 68.60913541 -16.69306139 53.33206282 -6.88681963 -29.32914586
1896220000 -0.85787096 -16.07762640 -13.03723572 68.39604691 -16.64768185 53.51866547 -6.88335178 -29.25192568
1901210000 -0.87170617 -16.11848920 -13.03574468 68.46651951 -16.63006280 53.34934837 -6.90417856 -29.36458921
1906200000 -0.88249682 -16.13834778 -13.04912116 68.37119133 -16.61045647 53.57638140 -6.91070428 -29.45227624
1911190000 -0.87879953 -16.29164451 -13.02576874 68.26661895 -16.63246838 53.30676173 -6.89783597 -29.44169105
1916180000 -0.88523554 -16.26502305 -13.02080001 68.32927441 -16.58757396 53.40845497 -6.89757108 -29.47066821
1921170000 -0.88188781 -16.40250340 -13.01787510 68.20720296 -16.57706859 53.38495082 -6.90756728 -29.54276155
1926160000 -0.88762183 -16.42500218 -13.00936639 68.15179521 -16.54697459 53.45059171 -6.90376811 -29.60536544
1931150000 -0.88283595 -16.51379647 -13.00241562 68.29417050 -16.56877870 53.39765072 -6.91464307 -29.63639876
1936140000 -0.87684669 -16.52652116 -12.98440148 68.10594841 -16.52011189 53.46611681 -6.89824148 -29.72617711
1941130000 -0.87662293 -16.47561229 -12.98268989 68.06129483 -16.49856985 53.42349283 -6.89030955 -29.61232619
1946120000 -0.86596283 -16.60849892 -12.97151076 67.99594097 -16.48027125 53.25420812 -6.87734510 -29.61724162
1951110000 -0.85052456 -16.71322808 -12.96723781 67.94236623 -16.47808572 53.27930978 -6.89984872 -29.72588810
1956100000 -0.84472481 -16.70961865 -12.94265655 67.77170820 -16.44893197 53.18767578 -6.89833712 -29.71461838
1961090000 -0.85188393 -16.79510627 -12.94745865 67.59289314 -16.43059126 53.23273918 -6.91608165 -29.68805063
1966080000 -0.84640610 -16.89719399 -12.95021153 67.50402138 -16.40341671 53.30687673 -6.89747872 -29.68990086
1971070000 -0.83858592 -16.91745944 -12.95242453 67.48046134 -16.36582826 53.03169517 -6.91180310 -29.72787870
1976060000 -0.84150429 -16.97085013 -12.94288998 67.36887521 -16.38543917 52.91481724 -6.91399058 -29.77922651
1981050000 -0.84943692 -16.93871314 -12.96725145 67.18346691 -16.36477867 53.08242663 -6.92924652 -29.79503320
1986040000 -0.83612872 -16.87489642 -12.92678470 67.08869343 -16.31742920 53.15212061 -6.92109104 -29.89005599
1991030000 -0.84301453 -16.94353516 -12.90660522 67.12697684 -16.34552659 53.09423494 -6.93081075 -29.94703793
1996020000 -0.87337523 -17.04571682 -12.94461081 67.05830841 -16.34358347 52.88943991 -6.94403433 -29.93805406
2001010000 -0.87288956 -17.10073020 -12.92663771 66.90321200 -16.29993223 52.80005834 -6.96364772 -30.01866339
2006000000 -0.87144148 -17.09217540 -12.94296027 67.04128074 -16.30462812 52.94833387 -6.97111968 -30.03891481
2010990000 -0.88332115 -17.08573386 -12.93339517 66.94649372 -16.26740951 53.05441020 -6.95175485 -30.03669872
2015980000 -0.89462450 -17.12473508 -12.93580790 66.80316130 -16.26478340 52.80893046 -6.96319714 -30.19539623
2020970000 -0.89165783 -17.19966498 -12.93701199 66.83934163 -16.23640664 52.92630878 -6.95626726 -30.24360948
2025960000 -0.89569140 -17.22793408 -12.94059747 66.77591373 -16.21393697 52.85808413 -6.96470655 -30.31239840
2030950000 -0.89980493 -17.31821928 -12.93410796 66.62837376 -16.18981713 52.98553667 -6.96346838 -30.21527095
2035940000 -0.88951625 -17.42812393 -12.91560370 66.64276421 -16.20888006 52.91908566 -6.96449768 -30.39561021
2040930000 -0.87723028 -17.45515158 -12.89242418 66.86215514 -16.17536712 52.92502297 -6.95115004 -30.36051833
2045920000 -0.88028501 -17.49801565 -12.86951755 66.54964982 -16.16298259 52.92885123 -6.95949427 -30.44043706
2050910000 -0.87863887 -17.61585957 -12.89064747 66.40652556 -16.14326137 52.74591725 -6.96043068 -30.31202002
2055900000 -0.87295881 -17.58118789 -12.87796893 66.36303762 -16.12198250 52.87981357 -6.94010910 -30.37933200
2060890000 -0.86781633 -17.67750081 -12.86939206 66.19418164 -16.06859517 52.82492728 -6.94697137 -30.49300082
2065880000 -0.85343236 -17.78354352 -12.85576442 66.15835654 -16.06445864 52.71195881 -6.93143630 -30.45428371
2070870000 -0.85272282 -17.82043400 -12.85138678 65.93750842 -16.06956404 52.78638827 -6.96526075 -30.39004016
2075860000 -0.85185879 -17.75664221 -12.83416216 66.08185664 -16.04462796 52.53343532 -6.95200614 -30.53817952
2080850000 -0.84839078 -17.83372728 -12.83663081 65.96060828 -16.04950924 52.59168709 -6.96717824 -30.49926837
2085840000 -0.85816872 -17.93198634 -12.83497436 65.69187704 -16.04959231 52.32207706 -6.97375401 -30.49341353
2090830000 -0.85955625 -17.91904354 -12.84723907 65.69123230 -16.02799949 52.35131943 -6.97429530 -30.49408096
2095820000 -0.87336031 -17.87696407 -12.84816876 65.70775552 -16.00708006 52.50966762 -6.98499927 -30.56392369
2100810000 -0.87688614 -17.93161978 -12.84146310 65.59349614 -15.97877591 52.42987674 -6.99759029 -30.59250399
2105800000 -0.88882731 -17.95068064 -12.85883140 65.57265574 -15.97202582 52.33621696 -7.01074892 -30.67212386
2110790000 -0.89759927 -17.95102341 -12.84674633 65.44896996 -15.95525252 52.25552379 -7.00232295 -30.70328881
2115780000 -0.90276484 -18.01834700 -12.81352113 65.22343199 -15.95479458 52.26581956 -7.00578865 -30.72561164
2120770000 -0.89125965 -18.00453751 -12.82634140 65.44996768 -15.94119673 52.31620227 -7.00114276 -30.86883374
2125760000 -0.90709197 -18.11872866 -12.81876180 65.27096167 -15.92255380 52.43085522 -7.02672288 -30.90063231
2130750000 -0.91337444 -18.12322608 -12.81912530 65.37053503 -15.89406195 52.35078122 -7.00650043 -31.03137350
2135740000 -0.91500848 -18.25944634 -12.81048097 65.29648283 -15.88328864 52.30836340 -7.01880394 -31.05361828
2140730000 -0.91547874 -18.31833423 -12.81235926 65.21409816 -15.88586052 52.46030159 -7.00672902 -31.04812527
2145720000 -0.90074755 -18.31490854 -12.79168792 65.12136762 -15.87731890 52.33299318 -7.01495183 -31.07244027
2150710000 -0.90339525 -18.42649828 -12.80368445 65.10020638 -15.81670842 52.24013407 -7.01487706 -31.07184994
2155700000 -0.88476299 -18.41785255 -12.78162477 64.96201783 -15.80733358 52.19685406 -7.02470303 -31.02589174
2160690000 -0.89088737 -18.51196057 -12.78901482 64.86769401 -15.78765586 52.29699056 -7.01000450 -31.12102533
2165680000 -0.87471754 -18.60350803 -12.76242807 64.79257365 -15.78894632 52.31002190 -7.02030880 -31.07683051
2170670000 -0.88668388 -18.68447286 -12.79146120 64.71039739 -15.77647148 52.16376376 -7.00420617 -31.09868852
2175660000 -0.86330459 -18.72146788 -12.76657602 64.62512355 -15.76326111 52.12292382 -7.01658581 -31.13484701
2180650000 -0.87660740 -18.67241097 -12.77345715 64.67815408 -15.75651486 52.07476258 -7.02335254 -31.32399640
2185640000 -0.87009334 -18.75050560 -12.76053737 64.47437689 -15.71140928 52.00734092 -7.02232739 -31.19904142
2190630000 -0.87171947 -18.75001989 -12.75655432 64.23987795 -15.71922593 51.99447403 -7.03152010 -31.21070941
2195620000 -0.88917971 -18.79232671 -12.74127244 64.31115539 -15.67507860 51.96878799 -7.04725991 -31.28414780
2200610000 -0.88989557 -18.80812764 -12.73416512 64.21860805 -15.69663626 51.84205746 -7.05915591 -31.39811779
2205600000 -0.89450083 -18.85934410 -12.74987937 64.22824937 -15.67770997 51.76431639 -7.04071808 -31.35565128
2210590000 -0.90626024 -18.83365182 -12.74642503 64.27146718 -15.65279295 51.85753858 -7.05966567 -31.40741313
2215580000 -0.91474511 -18.87742592 -12.75754097 64.14104346 -15.66378652 51.84924157 -7.06383293 -31.31350133
2220570000 -0.93209622 -18.87812103 -12.77108035 64.08505254 -15.64963238 51.85402496 -7.06341395 -31.44265131
2225560000 -0.92584966 -18.94978316 -12.74937055 64.06534718 -15.60335361 51.77916077 -7.07288073 -31.52131567
2230550000 -0.92345654 -18.98675678 -12.72651860 63.83916741 -15.60881123 51.58175341 -7.07657909 -31.60567191
2235540000 -0.92865122 -19.11753890 -12.72595303 63.77361575 -15.59390796 51.85934536 -7.08938591 -31.64657374
2240530000 -0.93146755 -19.06601407 -12.72880983 63.98560539 -15.59190677 51.79006790 -7.07732138 -31.71963884
2245520000 -0.93573837 -19.16502358 -12.70550418 63.91232435 -15.57736126 51.75413309 -7.05899492 -31.77450674
2250510000 -0.93452447 -19.23559754 -12.71457934 63.77091376 -15.57627636 51.65580669 -7.07075180 -31.78860117
2255500000 -0.93133007 -19.28280092 -12.70814618 63.78958675 -15.54155614 51.77060538 -7.08742469 -31.77370210
2260490000 -0.92484551 -19.35784111 -12.69847725 63.62009171 -15.52836851 51.62158290 -7.07872255 -31.88039643
2265480000 -0.92661811 -19.40584718 -12.69207915 63.48552064 -15.51535891 51.43504683 -7.06786818 -31.94423823
2270470000 -0.91590611 -19.44454284 -12.68320050 63.47837393 -15.49929912 51.55692912 -7.06575069 -31.91497094
2275460000 -0.91802113 -19.51240553 -12.67433424 63.46595469 -15.45016526 51.37475607 -7.06593505 -31.90139626
2280450000 -0.91303831 -19.52069272 -12.66475734 63.24863948 -15.47285542 51.28214002 -7.07094465 -31.96343759
2285440000 -0.90319019 -19.57169427 -12.66291274 63.22602308 -15.43966281 51.33860649 -7.07625524 -31.89736654
2290430000 -0.89770691 -19.59151276 -12.66822542 63.21024200 -15.42689613 51.34607206 -7.08771642 -31.91718450
2295420000 -0.90331968 -19.61520531 -12.65950136 63.06165236 -15.43825213 51.48271088 -7.10058805 -31.88764112
2300410000 -0.91538847 -19.65401677 -12.65180517 62.90821618 -15.42121984 51.36436786 -7.08489211 -31.98752421
2305400000 -0.92019704 -19.66200095 -12.65602526 62.89363287 -15.41863582 51.24643269 -7.10155239 -31.99382880
2310390000 -0.92637439 -19.67870791 -12.66983626 62.82212415 -15.36705333 51.26004520 -7.08480945 -32.02920984
2315380000 -0.93970381 -19.69849698 -12.65827959 62.67434573 -15.38641546 51.15181975 -7.09283275 -32.09892285
2320370000 -0.94030155 -19.72160021 -12.67126143 62.72477465 -15.37657621 51.03417879 -7.13178625 -32.19016434
2325360000 -0.95020890 -19.71480723 -12.63925911 62.58968841 -15.37805986 51.12180054 -7.11633320 -32.25585961
2330350000 -0.95856615 -19.70156476 -12.65443667 62.75953823 -15.38317901 50.94269375 -7.12871036 -32.30658231
2335340000 -0.96616302 -19.70492510 -12.62857757 62.63198614 -15.35527159 51.24285269 -7.12675412 -32.36635768
2340330000 -0.97313272 -19.78552640 -12.64600402 62.49924521 -15.33975509 50.97714517 -7.13158436 -32.39531724
2345320000 -0.97808701 -19.77605719 -12.63307277 62.71431969 -15.32622286 51.11787969 -7.13332047 -32.44110495
2350310000 -0.97604771 -19.89413946 -12.61696927 62.65348265 -15.30551989 51.09300252 -7.11555094 -32.48687889
2355300000 -0.97506280 -19.89543551 -12.61922590 62.60263039 -15.28191071 51.24599153 -7.12207474 -32.51348411
2360290000 -0.96611281 -20.02549690 -12.61188118 62.51185407 -15.24237324 51.09668616 -7.12338146 -32.60477606
2365280000 -0.96654210 -20.12561187 -12.59291172 62.43519551 -15.24556153 51.09422590 -7.12005287 -32.58765688
2370270000 -0.95917362 -20.10570629 -12.57330195 62.37096744 -15.22983013 51.00323772 -7.11633766 -32.64043771
2375260000 -0.95890990 -20.17380315 -12.60705380 62.18199572 -15.19303667 50.96450884 -7.11616345 -32.61780154
2380250000 -0.95494287 -20.26359174 -12.59064658 62.19072304 -15.23113431 50.97307886 -7.13136865 -32.68065592
2385240000 -0.94385175 -20.35515365 -12.56461534 62.06575289 -15.17652695 50.81139341 -7.13930986 -32.62489259
2390230000 -0.94957018 -20.30668340 -12.58487176 62.02138442 -15.16844914 50.81295545 -7.12999967 -32.58902771
2395220000 -0.93490506 -20.42909169 -12.55858976 61.93390398 -15.16666996 50.63587067 -7.14077675 -32.64375019
2400210000 -0.94369893 -20.40924721 -12.56135041 61.80289383 -15.15009045 50.72056723 -7.13313866 -32.68293460
2405200000 -0.94140411 -20.39824359 -12.56264740 61.76495788 -15.15294153 50.59494849 -7.15065232 -32.71443835
2410190000 -0.94372706 -20.38682759 -12.55990125 61.91474135 -15.14336964 50.78723948 -7.16333510 -32.74910212
2415180000 -0.96142406 -20.43602850 -12.54929578 61.67121336 -15.14627814 50.65679433 -7.16239970 -32.78656947
2420170000 -0.97742193 -20.43487306 -12.55269123 61.49492750 -15.09939909 50.58772192 -7.16237293 -32.82737354
2425160000 -0.98169783 -20.44673463 -12.55533663 61.44980092 -15.08871846 50.52270088 -7.17885490 -32.89309587
2430150000 -0.99214158 -20.42070040 -12.53907237 61.54239243 -15.10354589 50.55483625 -7.17197072 -32.93080624
2435140000 -0.99753111 -20.49576367 -12.56077545 61.36246441 -15.10470243 50.44980306 -7.17092378 -33.03316368
2440130000 -1.01319660 -20.46334811 -12.55155454 61.46673206 -15.08696202 50.57066130 -7.19464569 -33.04208338
2445120000 -1.01691971 -20.52139750 -12.54704679 61.32411955 -15.05504667 50.47976596 -7.18534185 -33.08523960
2450110000 -1.01107064 -20.53098625 -12.52158224 61.34333692 -15.03851110 50.48344856 -7.16436501 -33.25380988
2455100000 -1.02177326 -20.58017539 -12.54174902 61.44470300 -15.05236694 50.48292024 -7.18007190 -33.20433245
2460090000 -1.02447397 -20.64210359 -12.55123571 61.36464507 -15.03054342 50.65962941 -7.17794739 -33.32673285
2465080000 -1.01513544 -20.65771734 -12.51125371 61.23149382 -15.02054361 50.31883059 -7.17661753 -33.32065538
2470070000 -1.02095625 -20.79703663 -12.52018790 60.95487682 -14.99796603 50.45959949 -7.16291721 -33.32981225
2475060000 -1.00989755 -20.80201274 -12.50502664 61.14409814 -14.97555629 50.41129786 -7.17323772 -33.39988037
2480050000 -1.00108782 -20.86612183 -12.48541670 61.01205042 -14.96497768 50.33233969 -7.15673617 -33.37653515
2485040000 -0.99375415 -20.88266305 -12.48555222 60.95371939 -14.92830925 50.30909574 -7.16482566 -33.36701347
2490030000 -0.99893521 -20.97124646 -12.47647006 60.90383226 -14.93161821 50.44087966 -7.18511496 -33.35989508
2495020000 -0.99347750 -21.03617179 -12.49880429 60.78297083 -14.94559442 50.22314085 -7.17585386 -33.49563317
2500010000 -0.98651921 -21.04352186 -12.47977576 60.79301579 -14.91108764 50.08832765 -7.17035641 -33.41794661
2505000000 -0.99206781 -21.00395870 -12.45608064 60.69069983 -14.90330765 50.11306250 -7.19944642 -33.39870730
2509990000 -1.00044354 -21.05969921 -12.47269246 60.43135415 -14.92536414 50.15861459 -7.19055324 -33.49797646
2514980000 -1.00189160 -21.05192728 -12.43989888 60.44477746 -14.88099169 50.13383348 -7.20142400 -33.46658540
2519970000 -1.02162771 -21.04259360 -12.48452941 60.50738622 -14.86894008 49.93851658 -7.21382719 -33.59801413
2524960000 -1.01842148 -21.14824492 -12.47868056 60.29647472 -14.86439758 49.96818908 -7.22027659 -33.58213123
2529950000 -1.03296307 -21.08459022 -12.47161507 60.20322751 -14.85651825 49.95691178 -7.23206624 -33.60833646
2534940000 -1.03493681 -21.08552128 -12.47187120 60.32104468 -14.86118254 49.81798072 -7.21822479 -33.79619995
2539930000 -1.06013384 -21.17974007 -12.44654060 60.07766903 -14.83049636 49.94915133 -7.22660147 -33.75202058
2544920000 -1.05873627 -21.17284342 -12.46235439 60.10099653 -14.83184271 49.93484123 -7.22923739 -33.82138077
2549910000 -1.06884892 -21.14286990 -12.46163280 60.23154945 -14.81928523 49.92328751 -7.22811082 -33.91337272
2554900000 -1.06010594 -21.19508554 -12.44846498 60.12627735 -14.78877976 49.96701884 -7.24366972 -33.89467848
2559890000 -1.07090809 -21.21035220 -12.43318268 60.12863018 -14.80304696 49.94234153 -7.24660038 -33.97390888
2564880000 -1.07633967 -21.23712379 -12.43604677 60.05534550 -14.80895344 49.90701273 -7.22687037 -34.06982990
2569870000 -1.06586938 -21.28066660 -12.41771201 59.99331175 -14.76076126 49.80875642 -7.23875956 -34.08055515
2574860000 -1.06897890 -21.41302119 -12.41464458 59.92467520 -14.77984281 49.84015705 -7.22397305 -34.24498765
2579850000 -1.06763265 -21.39779716 -12.41736546 59.94070244 -14.72191334 49.88048999 -7.21341694 -34.24395542
2584840000 -1.06265738 -21.49518139 -12.41473549 59.82701665 -14.73695396 49.81312654 -7.23111300 -34.09858419
2589830000 -1.05313871 -21.57834298 -12.38411164 59.90192373 -14.70220292 49.68529805 -7.22807634 -34.16822140
2594820000 -1.05441420 -21.61831593 -12.39713244 59.76338977 -14.69745850 49.73036106 -7.21161540 -34.13886720
2599810000 -1.05029371 -21.63196922 -12.40053884 59.65368846 -14.68831204 49.56591462 -7.24083345 -34.29306705
2604800000 -1.04878213 -21.56214712 -12.38292472 59.73229133 -14.68093925 49.70294848 -7.24014603 -34.18788988
2609790000 -1.05894423 -21.72486367 -12.37664506 59.54548415 -14.68421945 49.50874902 -7.23736802 -34.27664057
2614780000 -1.06001211 -21.66873550 -12.38470287 59.43633760 -14.65333030 49.55434484 -7.24963566 -34.19326448
2619770000 -1.05211251 -21.71513595 -12.39224688 59.31355201 -14.66761721 49.54243592 -7.24570475 -34.23419272
2624760000 -1.06454874 -21.71182132 -12.37707523 59.23522941 -14.65367326 49.48215324 -7.27513582 -34.28930684
2629750000 -1.06086198 -21.72410062 -12.37802716 59.21343371 -14.63536310 49.46554824 -7.27746582 -34.38325906
2634740000 -1.08849405 -21.76640717 -12.38268095 59.27008981 -14.63019056 49.18493810 -7.28026539 -34.39991568
2639730000 -1.09914986 -21.75477593 -12.36233302 59.06170742 -14.60725316 49.39797216 -7.28552073 -34.49623827
2644720000 -1.10174056 -21.74538661 -12.37885894 59.10060385 -14.60382102 49.43783335 -7.29080139 -34.51935668
2649710000 -1.11393192 -21.69571189 -12.36752237 59.12682988 -14.60391746 49.25598775 -7.27545739 -34.66484223
2654700000 -1.12799323 -21.74525308 -12.37433971 59.06079297 -14.60668497 49.29989431 -7.28102600 -34.56136467
2659690000 -1.12666205 -21.77111893 -12.36465661 59.06085361 -14.58678051 49.31805225 -7.28745014 -34.73692170
2664680000 -1.13060233 -21.73176268 -12.34356524 59.02541016 -14.57797570 49.33210242 -7.27366528 -34.83358312
2669670000 -1.13059137 -21.81352563 -12.35410291 59.04369655 -14.55023248 49.31263451 -7.28451209 -34.92976817
2674660000 -1.13100637 -21.83914044 -12.33556319 59.04806734 -14.54808929 49.51628206 -7.27149077 -34.79174522
2679650000 -1.12790169 -21.90003787 -12.34764718 58.97797667 -14.54572092 49.30246906 -7.27382873 -34.83733416
2684640000 -1.12524612 -22.01049101 -12.34117465 58.88265409 -14.50457385 49.36264470 -7.26315957 -35.03375301
2689630000 -1.11762501 -22.03071429 -12.31881202 58.80930486 -14.50073466 49.25845342 -7.27036396 -35.00981236
2694620000 -1.11692438 -22.10364026 -12.30070372 58.71145890 -14.49105038 49.24351632 -7.29134926 -35.02376228
2699610000 -1.11864609 -22.11684124 -12.30867197 58.69513559 -14.48843427 49.20841326 -7.26761342 -34.97795844
2704600000 -1.10523683 -22.11224753 -12.29729379 58.68216655 -14.46628118 48.99151089 -7.28459121 -34.97238538
2709590000 -1.10931913 -22.21056079 -12.28481123 58.54009782 -14.44819702 49.08090789 -7.29203088 -34.98782629
2714580000 -1.10438701 -22.20748086 -12.29501730 58.47592973 -14.45444160 49.15428111 -7.29086156 -35.00503863
2719570000 -1.11195012 -22.17491392 -12.29518198 58.37173758 -14.43785248 49.10155804 -7.29631488 -35.02215200
2724560000 -1.11208207 -22.24577490 -12.28592615 58.28652312 -14.43276677 49.04317338 -7.29771693 -35.07803022
2729550000 -1.11820363 -22.32855293 -12.29114583 58.07908247 -14.41937563 49.01771039 -7.30551042 -35.06728884
2734540000 -1.12979068 -22.23116464 -12.28975100 58.28535889 -14.41067360 48.91723876 -7.29886015 -35.10344043
2739530000 -1.14569379 -22.19449723 -12.26642542 58.11656389 -14.39168166 48.92286626 -7.29786746 -35.19287586
2744520000 -1.13751891 -22.29809210 -12.27487632 58.08882082 -14.40080763 48.71466444 -7.30618708 -35.23745260
2749510000 -1.14957285 -22.21980138 -12.26834474 58.12272555 -14.37054025 48.83297061 -7.31700766 -35.28412080
2754500000 -1.16514904 -22.24269978 -12.28840389 58.15269487 -14.39366821 48.73149170 -7.32034314 -35.36599449
2759490000 -1.16290131 -22.30425427 -12.26404554 58.00384463 -14.35934494 48.72432385 -7.31699890 -35.41675581
2764480000 -1.18454029 -22.28132597 -12.25044176 58.03074347 -14.35925248 48.84386375 -7.33994153 -35.45739524
2769470000 -1.19353771 -22.27194540 -12.26791957 57.98488068 -14.34348702 48.84094677 -7.34936819 -35.56456322
2774460000 -1.19618158 -22.40604679 -12.26842968 57.88715073 -14.33676609 48.77614833 -7.33339250 -35.63695239
2779450000 -1.19103634 -22.37013363 -12.25589798 57.88549818 -14.33529075 48.72571351 -7.34586795 -35.69401127
2784440000 -1.20002400 -22.43598629 -12.24592524 57.86617548 -14.30588344 48.65398074 -7.32070114 -35.65318336
2789430000 -1.18957597 -22.45550185 -12.24490774 57.80321813 -14.31380407 48.82051940 -7.30727929 -35.72327612
2794420000 -1.18596674 -22.56226521 -12.21778840 57.68495889 -14.31424470 48.56809390 -7.31708858 -35.81840392
2799410000 -1.18256798 -22.63524724 -12.21007027 57.61069631 -14.27958004 48.58382738 -7.29977437 -35.77469621
2804400000 -1.17783259 -22.70194152 -12.21532164 57.65873485 -14.25913014 48.53101195 -7.30044690 -35.78668543
2809390000 -1.18266524 -22.70230529 -12.21314772 57.65058779 -14.25748799 48.73679708 -7.30235686 -35.77298235
2814380000 -1.17359337 -22.75471472 -12.19957926 57.57176003 -14.24540229 48.43081170 -7.32504872 -35.79066601
2819370000 -1.16886816 -22.72557433 -12.19188076 57.47261480 -14.23168821 48.51477753 -7.31351545 -35.85726517
2824360000 -1.17701428 -22.77435358 -12.18741456 57.37374960 -14.22985498 48.37915172 -7.31132673 -35.87602092
2829350000 -1.18135621 -22.80554414 -12.18062312 57.26404101 -14.19762417 48.37980429 -7.34447739 -35.86392172
2834340000 -1.18247858 -22.88281061 -12.17666336 57.25410878 -14.20458411 48.42645047 -7.32225440 -35.94641466
2839330000 -1.19217900 -22.80895127 -12.18300793 57.23866003 -14.23704219 48.28733796 -7.43985586 -35.83016406
2844320000 -1.19014682 -22.79111311 -12.19762519 57.23144293 -14.22659315 48.49736293 -7.43188509 -35.86165044
2849310000 -1.19711619 -22.81138609 -12.18368761 57.30934282 -14.20410588 48.43715577 -7.42262347 -35.92621066
2854300000 -1.21290013 -22.79070976 -12.17551629 57.24375545 -14.20831742 48.44308842 -7.43585901 -35.99765886
2859290000 -1.22341139 -22.79811316 -12.17979431 57.11626906 -14.19902037 48.31128913 -7.44924687 -36.04090342
2864280000 -1.22171875 -22.81844711 -12.16651907 57.02756507 -14.20185057 48.37828397 -7.45632687 -36.25605081
2869270000 -1.23522201 -22.84908986 -12.17452274 56.96518598 -14.19695484 48.40393934 -7.47241338 -36.20634350
2874260000 -1.24310086 -22.85394718 -12.16915756 56.97845952 -14.18496128 48.31560974 -7.45198341 -36.30153661
2879250000 -1.25437951 -22.90489576 -12.15572460 57.07080489 -14.15594472 48.34033542 -7.46730368 -36.43204222
2884240000 -1.25690172 -22.98546962 -12.16295271 57.03419479 -14.15189481 48.35838738 -7.42546099 -36.39282626
2889230000 -1.26603490 -23.05633253 -12.16271607 56.75668217 -14.15287226 48.12772198 -7.43395955 -36.47133089
2894220000 -1.24438130 -23.05106487 -12.13152399 56.86572047 -14.13954720 48.23638208 -7.44382593 -36.51076068
2899210000 -1.24582208 -23.08046859 -12.13373479 56.89715062 -14.10531262 48.31450369 -7.43981511 -36.50297211
2904200000 -1.24307879 -23.14569558 -12.11789194 56.72724742 -14.10522635 48.28920663 -7.42902087 -36.52810802
2909190000 -1.23950801 -23.18979590 -12.10720588 56.73833810 -14.10004247 48.05320560 -7.44720325 -36.60366905
2914180000 -1.24204058 -23.25893436 -12.09862696 56.64204479 -14.07473910 48.09983027 -7.44680704 -36.63361408
2919170000 -1.23259829 -23.26527088 -12.09784245 56.52602074 -14.04450194 48.15483730 -7.42496540 -36.60934546
2924160000 -1.22983482 -23.32309997 -12.10553945 56.56609675 -14.05800063 48.12917338 -7.44593597 -36.65935780
2929150000 -1.24209316 -23.32644713 -12.09872562 56.60501648 -14.05265762 48.05489107 -7.43787963 -36.67076656
2934140000 -1.23286748 -23.41429351 -12.08816598 56.35413056 -14.04185992 48.02982549 -7.44938669 -36.68490685
2939130000 -1.23464086 -23.34488344 -12.08194194 56.36864873 -14.05286824 48.06675753 -7.43532728 -36.64525464
2944120000 -1.23583141 -23.38663801 -12.08135503 56.37727775 -14.01380889 47.93729799 -7.45999224 -36.65039097
2949110000 -1.24891266 -23.33947224 -12.10127454 56.42709595 -14.00732618 47.84487998 -7.44931369 -36.71822950
2954100000 -1.26033763 -23.27303211 -12.08304350 56.28169972 -14.01332937 47.89952108 -7.46713287 -36.77053531
2959090000 -1.26147998 -23.39539384 -12.07339458 56.31449980 -13.98740424 47.92508411 -7.48135714 -36.81215007
2964080000 -1.26971782 -23.38952472 -12.08681701 56.22690322 -13.99323599 47.81637344 -7.48534902 -36.90360171
2969070000 -1.27903167 -23.29074726 -12.08859028 56.09692134 -13.98603973 47.98782586 -7.47019338 -36.90995414
2974060000 -1.28347722 -23.35811676 -12.07204160 56.19677404 -13.98058675 47.95217859 -7.49469408 -36.98288507
2979050000 -1.29386611 -23.42302161 -12.07511514 56.16734824 -13.96635559 47.89684782 -7.49626005 -37.07847214
2984040000 -1.30428398 -23.49041787 -12.05318405 56.10775648 -13.94921862 47.89449223 -7.48380422 -37.14546741
2989030000 -1.30322322 -23.46869012 -12.05795550 56.14503484 -13.94549838 47.91328290 -7.49462785 -37.03712844
2994020000 -1.30383028 -23.58634306 -12.04696944 55.93731114 -13.93645493 47.90064342 -7.49728380 -37.33667444
2999010000 -1.30955990 -23.57963604 -12.03185184 56.01636272 -13.91611821 47.76086103 -7.47868286 -37.33404855
3004000000 -1.31012851 -23.62889354 -12.03889503 56.04043637 -13.91308348 47.73848646 -7.48464562 -37.28120177
3008990000 -1.31077463 -23.69842041 -12.01120971 55.85218838 -13.88832761 47.68269952 -7.48675776 -37.30823986
3013980000 -1.30751306 -23.80081797 -12.03280780 55.87741357 -13.88718261 47.69693943 -7.49431955 -37.38765533
3018970000 -1.29905984 -23.77111343 -12.01027168 55.81472827 -13.85814141 47.71066537 -7.49085337 -37.38517159
3023960000 -1.30251173 -23.81050237 -11.99455271 55.71073037 -13.87024478 47.80227560 -7.49163453 -37.42255210
3028950000 -1.30590055 -23.91402057 -11.99900083 55.62058818 -13.85345451 47.66126569 -7.49147467 -37.44325229
3033940000 -1.29537401 -23.91402323 -11.97571164 55.68483316 -13.87352466 47.60640785 -7.50279405 -37.44304865
3038930000 -1.28794198 -23.91831632 -11.98698107 55.65231650 -13.85326850 47.58228643 -7.51016783 -37.42994143
3043920000 -1.29683275 -23.93596371 -11.99728922 55.54500124 -13.83564954 47.49441040 -7.50468084 -37.42076901
3048910000 -1.29274601 -23.91681567 -11.99689352 55.36667376 -13.81996151 47.57279986 -7.52300664 -37.43659898
3053900000 -1.30378769 -23.94314523 -11.97744586 55.46877177 -13.81789969 47.43784154 -7.53160615 -37.52426810
3058890000 -1.30595729 -23.92805620 -11.96995980 55.36413050 -13.80030322 47.38291217 -7.51427135 -37.55487443
3063880000 -1.31457352 -23.89511497 -11.99259523 55.49062423 -13.78417836 47.44968516 -7.51344565 -37.59013710
3068870000 -1.31579350 -23.96689410 -11.96422580 55.21402908 -13.80069350 47.42881794 -7.51751919 -37.62825884
3073860000 -1.33179947 -23.91246671 -11.96079068 55.43439303 -13.77725901 47.29980767 -7.51433584 -37.68964929
3078850000 -1.34425522 -23.96461625 -11.97587617 55.18131046 -13.77323249 47.36187555 -7.53809795 -37.77106185
3083840000 -1.33721987 -24.02249616 -11.95308455 55.18721711 -13.75735072 47.43904003 -7.55822481 -37.81491843
3088830000 -1.35410978 -24.04133054 -11.96425809 55.20617624 -13.76123064 47.25102521 -7.55780938 -37.84908103
3093820000 -1.35620037 -24.01764351 -11.92339804 55.22535230 -13.74625655 47.44636181 -7.56797328 -37.92559222
3098810000 -1.35444947 -24.12487898 -11.92918821 55.12241858 -13.75640354 47.34812139 -7.55942300 -38.00094488
3103800000 -1.36286498 -24.19316487 -11.92035850 55.04274450 -13.74260135 47.37208919 -7.56441587 -38.04748200
3108790000 -1.36651474 -24.25333483 -11.93215531 55.00564155 -13.73251781 47.21935586 -7.56280222 -38.06905366
3113780000 -1.36511275 -24.31774315 -11.90356521 55.01086244 -13.70535290 47.25204596 -7.57920814 -38.09390029
3118770000 -1.36476035 -24.39175681 -11.90782583 54.88781024 -13.69353451 47.17490234 -7.56887014 -38.23488752
3123760000 -1.34675289 -24.41500459 -11.90553223 54.94334166 -13.69302908 47.35846883 -7.56653731 -38.17771848
3128750000 -1.34847579 -24.48176981 -11.89010355 54.91880143 -13.67498991 47.11499394 -7.55270592 -38.13839630
3133740000 -1.34935081 -24.48677623 -11.89004874 54.84766840 -13.65737685 47.33421543 -7.55958511 -38.21202414
3138730000 -1.35088213 -24.52261224 -11.88277823 54.69934738 -13.64544571 47.19261675 -7.54734901 -38.19156078
3143720000 -1.34614851 -24.52672837 -11.88267835 54.69263401 -13.65733751 47.06543367 -7.55319380 -38.16283770
3148710000 -1.34025340 -24.51778318 -11.87611883 54.67387760 -13.62239497 47.07091983 -7.56858619 -38.27562896
3153700000 -1.35250045 -24.51319914 -11.88103880 54.63340704 -13.62946857 47.02146652 -7.57065015 -38.17238447
3158690000 -1.33546457 -24.53230620 -11.86396779 54.52597919 -13.61781650 47.13408760 -7.57673742 -38.29256027
3163680000 -1.35703943 -24.57087783 -11.87207335 54.55497721 -13.62557653 46.90189424 -7.58954452 -38.26110600
3168670000 -1.36057430 -24.58783155 -11.87032560 54.61100967 -13.58826799 46.99515482 -7.59181414 -38.38500361
3173660000 -1.36702116 -24.50547938 -11.86167317 54.52111365 -13.59868635 46.97497498 -7.60372773 -38.48045338
3178650000 -1.37293104 -24.53593220 -11.86150631 54.43778466 -13.58487473 46.98322955 -7.59334293 -38.36917414
3183640000 -1.38583398 -24.52274516 -11.82683505 54.33119937 -13.58519393 46.88535278 -7.59003435 -38.52724924
3188630000 -1.39771440 -24.56141320 -11.86270878 54.38357863 -13.54753393 46.93822523 -7.59955760 -38.53283638
3193620000 -1.40101845 -24.62240901 -11.84675750 54.34485139 -13.56108705 46.82918730 -7.60286844 -38.59037384
3198610000 -1.39896011 -24.67423870 -11.83370725 54.31220869 -13.55796235 46.91194292 -7.60237201 -38.67060998
3203600000 -1.40565472 -24.72217609 -11.82671790 54.21692146 -13.55836455 46.72832558 -7.61948378 -38.72839150
3208590000 -1.40160672 -24.78573663 -11.82403295 54.23793509 -13.53949865 46.76289966 -7.60379797 -38.77440409
3213580000 -1.41548986 -24.86270881 -11.81613297 54.22162335 -13.53026488 46.79075718 -7.61152432 -38.90477583
3218570000 -1.40450839 -24.98419848 -11.81959531 54.03938159 -13.50551416 46.74552295 -7.61545364 -38.84990447
3223560000 -1.41152073 -24.99602238 -11.80642626 54.03257855 -13.50637321 46.83169187 -7.62098345 -38.81289587
3228550000 -1.41117764 -25.07497611 -11.81267404 54.00794418 -13.49488454 46.67464248 -7.61429289 -38.89897549
3233540000 -1.40180575 -25.12024980 -11.80362606 53.97560755 -13.47242881 46.64960689 -7.60741132 -38.99556064
3238530000 -1.39513639 -25.14022399 -11.77408687 54.02545445 -13.48215077 46.61945039 -7.59914908 -39.05011295
3243520000 -1.39211621 -25.22508655 -11.77274249 53.85762103 -13.47526464 46.47007636 -7.61123358 -39.01119570
3248510000 -1.38742157 -25.25388053 -11.77196209 53.94169010 -13.44944661 46.43182817 -7.61545076 -39.05711317
3253500000 -1.38880705 -25.23648994 -11.78218154 53.91115403 -13.44499348 46.47451607 -7.60969383 -39.03193611
3258490000 -1.38979569 -25.22746677 -11.75293137 53.72997811 -13.43086388 46.27466531 -7.62047580 -39.04526505
3263480000 -1.38763447 -25.23787526 -11.76922542 53.77555836 -13.42352449 46.38766971 -7.61142346 -39.16828526
3268470000 -1.40203328 -25.23655816 -11.75274031 53.54090116 -13.41421944 46.37461631 -7.62501251 -39.07393554
3273460000 -1.39390919 -25.19930008 -11.76757093 53.66161549 -13.39363600 46.48666141 -7.62696345 -39.19657818
3278450000 -1.41299671 -25.23453288 -11.74511154 53.55108012 -13.41087177 46.42914012 -7.63032787 -39.20189031
3283440000 -1.41538273 -25.23311876 -11.74121939 53.31292249 -13.39576154 46.28997418 -7.63171384 -39.18920125
3288430000 -1.42163313 -25.28678249 -11.73867286 53.43699872 -13.37849626 46.30643708 -7.63206203 -39.26256440
3293420000 -1.43078128 -25.26053016 -11.74454809 53.47748178 -13.38629906 46.34686283 -7.63742363 -39.34687931
3298410000 -1.44590271 -25.32727091 -11.74143892 53.34682251 -13.38407108 46.26541088 -7.64601880 -39.41962360
3303400000 -1.45053040 -25.34150225 -11.74218764 53.37790257 -13.37335176 46.41228244 -7.65718651 -39.39416952
3308390000 -1.45639504 -25.38458191 -11.72017823 53.30871467 -13.35598438 46.25044640 -7.67513584 -39.42713346
3313380000 -1.45046847 -25.54613018 -11.72525287 53.29094926 -13.35094293 46.18861901 -7.66100306 -39.47533371
3318370000 -1.45956965 -25.56928828 -11.70343578 53.27455747 -13.32447087 46.12823056 -7.64122803 -39.57049412
3323360000 -1.45933166 -25.70742099 -11.69059054 53.17955765 -13.33297051 46.25401918 -7.64559087 -39.59312425
3328350000 -1.45566877 -25.69482296 -11.68946420 53.26025507 -13.31497744 46.09816390 -7.66894666 -39.51699466
3333340000 -1.44787069 -25.78432436 -11.68691818 53.12121964 -13.30211106 45.95462643 -7.65155545 -39.70324690
3338330000 -1.44637750 -25.85604840 -11.69432361 53.04907867 -13.29684668 45.95839213 -7.66058713 -39.65888712
3343320000 -1.43523513 -25.89627946 -11.68090445 52.96069042 -13.29205695 45.91575067 -7.65235465 -39.69318722
3348310000 -1.43537370 -25.94041962 -11.67787851 53.04832181 -13.27723172 45.87898900 -7.64536117 -39.81160698
3353300000 -1.43334222 -25.99116655 -11.68130725 52.98558317 -13.30398323 45.88935137 -7.67017222 -39.65425391
3358290000 -1.44287103 -25.95720357 -11.67415702 52.83587129 -13.27812993 45.79335998 -7.65639095 -39.81996714
3363280000 -1.44020160 -25.92104025 -11.66494894 52.81253678 -13.27520528 45.94041348 -7.66248728 -39.78878807
3368270000 -1.43446661 -26.03740610 -11.64612258 52.77080203 -13.25029403 45.74101360 -7.67125341 -39.84711636
3373260000 -1.43205930 -25.99141602 -11.65682660 52.73712547 -13.25138869 45.79076042 -7.67503931 -39.82291702
3378250000 -1.44701769 -25.97780931 -11.66838108 52.66877257 -13.23836280 45.76137330 -7.67699090 -39.86554526
3383240000 -1.44863806 -26.04759519 -11.65521175 52.65732909 -13.22740229 45.71738747 -7.68673031 -39.92833706
3388230000 -1.45964283 -26.00858236 -11.65169881 52.52866290 -13.20337275 45.60817034 -7.70082142 -39.96653963
3393220000 -1.46836182 -26.02060779 -11.64497561 52.56339292 -13.21568248 45.66945840 -7.69379353 -39.96273970
3398210000 -1.46342483 -25.96947137 -11.64040874 52.63275940 -13.20348125 45.77077474 -7.70059133 -39.91983582
3403200000 -1.47992711 -26.04369862 -11.63493163 52.68039192 -13.22512722 45.75381577 -7.70101499 -40.00818879
3408190000 -1.48167294 -26.12902145 -11.65491118 52.51331693 -13.19001435 45.55811141 -7.69636118 -40.08807326
3413180000 -1.48523871 -26.20949176 -11.62945603 52.37467213 -13.19823794 45.58984551 -7.70017499 -40.12312876
3418170000 -1.48753448 -26.26631577 -11.60943687 52.34062387 -13.16649117 45.63539009 -7.70162721 -40.21033770
3423160000 -1.50118924 -26.30310303 -11.61450943 52.35265921 -13.15954475 45.49227473 -7.69083992 -40.32926490
3428150000 -1.50436474 -26.38106021 -11.61051956 52.26676849 -13.15069217 45.48580756 -7.70920424 -40.28717918
3433140000 -1.49837594 -26.46337402 -11.60993541 52.21128693 -13.15307027 45.49084503 -7.71038315 -40.40190240
3438130000 -1.49955653 -26.50779163 -11.60228447 52.19256099 -13.15225318 45.40054933 -7.69042969 -40.33833335
3443120000 -1.49206791 -26.60940538 -11.59184780 52.06901874 -13.13206277 45.33225512 -7.67932445 -40.47455494
3448110000 -1.49323548 -26.68780934 -11.60101904 52.14457238 -13.12272164 45.42737066 -7.67319750 -40.44763762
3453100000 -1.49344036 -26.69615678 -11.59726591 52.00508860 -13.10061345 45.17694785 -7.69030461 -40.37832309
3458090000 -1.48806107 -26.78944901 -11.57935860 52.01849758 -13.10434957 45.17009710 -7.68406259 -40.50577473
3463080000 -1.48339396 -26.75174844 -11.57420913 51.91985505 -13.09672616 45.09200962 -7.70740688 -40.59092355
3468070000 -1.48179165 -26.83770371 -11.56354956 51.86150168 -13.08943000 45.20411736 -7.69542926 -40.49928655
3473060000 -1.48474413 -26.78531906 -11.57480039 51.77724969 -13.10360382 45.10987775 -7.70828763 -40.57213262
3478050000 -1.47972404 -26.87526682 -11.54517884 51.72359188 -13.08282590 45.10854600 -7.72170111 -40.69311608
3483040000 -1.48085391 -26.79427445 -11.56331174 51.79944741 -13.07585168 45.00570794 -7.72042711 -40.59002326
3488030000 -1.49050103 -26.85769501 -11.55612446 51.62730626 -13.06692799 45.08365253 -7.73200613 -40.58966095
3493020000 -1.48790536 -26.78782592 -11.56006429 51.88321939 -13.04809728 45.02357361 -7.73504294 -40.68325984
3498010000 -1.49896185 -26.79253775 -11.55505773 51.59399232 -13.03686846 45.00508102 -7.71520397 -40.74588498
3503000000 -1.51755236 -26.83237110 -11.55308283 51.65148986 -13.05431020 45.05606394 -7.72529054 -40.67828588
3507990000 -1.52019728 -26.85291482 -11.53717597 51.57508877 -13.02753419 44.95894219 -7.71957111 -40.79093155
3512980000 -1.52639478 -26.90027634 -11.53880716 51.60578417 -13.02788891 45.03365141 -7.75637152 -40.84953764
3517970000 -1.54014661 -26.93838704 -11.55147969 51.51750862 -13.02350135 44.92410818 -7.72624805 -40.84956222
3522960000 -1.53344692 -26.99966624 -11.53175603 51.49327516 -13.01460059 44.90443347 -7.72471540 -40.86386158
3527950000 -1.54389136 -27.10987441 -11.51596032 51.48369491 -13.00892296 44.83370658 -7.73180971 -40.95961158
3532940000 -1.54081287 -27.18543370 -11.51735228 51.48159696 -12.98071871 44.79995977 -7.73596452 -41.04147796
3537930000 -1.54081110 -27.28802567 -11.51286355 51.38203106 -12.99721498 44.83862406 -7.73329646 -40.99440557
3542920000 -1.53507209 -27.29434313 -11.51088378 51.18291293 -12.98407286 44.73524644 -7.73891894 -41.18511071
3547910000 -1.53912982 -27.38021246 -11.49662933 51.30028094 -12.96805979 44.76095295 -7.72958165 -41.08204237
3552900000 -1.53241223 -27.46107992 -11.49814037 51.27103789 -12.95131376 44.71871398 -7.73205706 -41.16165622
3557890000 -1.52111071 -27.54188944 -11.47305762 51.20314026 -12.94934500 44.66298889 -7.73636642 -41.16669264
3562880000 -1.51865379 -27.55718681 -11.48187492 51.01610978 -12.95736473 44.65792035 -7.74918095 -41.21866945
3567870000 -1.53307729 -27.60009798 -11.47552161 51.01911255 -12.93758406 44.66306424 -7.74140442 -41.27609330
3572860000 -1.52593964 -27.62075984 -11.48578141 50.98763346 -12.92656276 44.47739739 -7.75172011 -41.15415212
3577850000 -1.51943894 -27.59155455 -11.45756979 50.89708362 -12.93303002 44.38230910 -7.75075341 -41.27087706
3582840000 -1.51917455 -27.67554815 -11.47313305 50.81220531 -12.92867142 44.51032204 -7.78075218 -41.27539571
3587830000 -1.53333281 -27.60068839 -11.48676844 50.83222622 -12.92692974 44.56981463 -7.75945565 -41.46546828
3592820000 -1.54259339 -27.67405319 -11.47753404 50.83374728 -12.93241211 44.37085103 -7.77752333 -41.35563880
3597810000 -1.54440062 -27.64760353 -11.46432329 50.81100247 -12.92111555 44.32914438 -7.76613254 -41.37407401
3602800000 -1.54606062 -27.64831403 -11.46906218 50.72217249 -12.91145997 44.41001548 -7.76983874 -41.38173461
3607790000 -1.54715149 -27.64795975 -11.44711941 50.75907796 -12.90015761 44.36882114 -7.77578648 -41.57087684
3612780000 -1.55594968 -27.66480828 -11.46427801 50.71757449 -12.89760867 44.27456763 -7.78409241 -41.62579831
3617770000 -1.57161565 -27.70916825 -11.44964189 50.69364056 -12.89402835 44.30490963 -7.77975383 -41.71393379
3622760000 -1.57711803 -27.71103901 -11.45664166 50.58855095 -12.88233222 44.36270127 -7.78841424 -41.60185888
3627750000 -1.57814238 -27.72854918 -11.42521192 50.57945658 -12.86803331 44.33400182 -7.77170295 -41.70833783
3632740000 -1.57757383 -27.83992351 -11.43720467 50.54951979 -12.87865707 44.42481176 -7.79025359 -41.67213619
3637730000 -1.57918604 -27.89740165 -11.42190412 50.52327337 -12.86145579 44.27319985 -7.78465714 -41.83953959
3642720000 -1.58600705 -28.01754057 -11.42887644 50.48646653 -12.83999620 44.30600709 -7.78131963 -41.75356566
3647710000 -1.58375469 -28.12025000 -11.42553957 50.41737027 -12.83757253 44.09001527 -7.79086622 -41.77901246
3652700000 -1.58348867 -28.17270865 -11.40764872 50.44517910 -12.84423560 44.11437607 -7.78249081 -41.91335667
3657690000 -1.57958238 -28.23868859 -11.40720394 50.37885982 -12.80538384 43.97129392 -7.78079545 -41.92698855
3662680000 -1.57742798 -28.34349012 -11.40421703 50.34358930 -12.82607443 44.11137286 -7.77798027 -41.92237297
3667670000 -1.57647114 -28.34703014 -11.40295250 50.25966400 -12.81668760 44.01856619 -7.78479505 -41.96995811
3672660000 -1.56908507 -28.38572225 -11.40734934 50.22139089 -12.80912585 43.92267313 -7.78527552 -41.91771763
3677650000 -1.57563338 -28.42176321 -11.39894002 50.15858232 -12.79614791 43.91046857 -7.79942109 -41.95162031
3682640000 -1.56507137 -28.41989743 -11.39856864 50.16726601 -12.80637875 43.92416994 -7.80700102 -41.97431302
3687630000 -1.56403466 -28.45291116 -11.38300021 50.07233679 -12.78031527 43.86983630 -7.81140353 -42.10777579
3692620000 -1.57666198 -28.48051000 -11.40803801 50.03877552 -12.79928933 43.90933255 -7.80485686 -41.97313854
3697610000 -1.57016544 -28.45702650 -11.38659541 50.03919151 -12.77329099 43.89089939 -7.82880847 -42.06247769
3702600000 -1.58082758 -28.49082908 -11.38044206 49.95844538 -12.77522087 43.84597795 -7.80738613 -42.06784525
3707590000 -1.58802458 -28.43683398 -11.40408202 50.00083525 -12.76907352 43.74978524 -7.80878180 -42.12906308
3712580000 -1.58816213 -28.44314975 -11.39891320 49.94777990 -12.75052563 43.92261277 -7.81884486 -42.28850710
3717570000 -1.60234506 -28.51067857 -11.37678048 49.89614277 -12.75668998 43.78794018 -7.83012678 -42.14445151
3722560000 -1.59946144 -28.49062088 -11.37561472 49.89904392 -12.74592292 43.78210914 -7.82916155 -42.27431686
3727550000 -1.60232551 -28.54343278 -11.35959373 49.75875770 -12.73683050 43.80623593 -7.83468859 -42.31939056
3732540000 -1.61477281 -28.60394196 -11.36325780 49.84096998 -12.74960191 43.68455390 -7.83988900 -42.41957118
3737530000 -1.61293022 -28.64054464 -11.35283798 49.74385326 -12.72966723 43.72444641 -7.83547425 -42.43432724
3742520000 -1.62678777 -28.74762151 -11.35799389 49.66443562 -12.72407036 43.60838821 -7.83515420 -42.42248002
3747510000 -1.63715111 -28.78405832 -11.34840281 49.61925021 -12.71153811 43.70472733 -7.80806970 -42.50293065
3752500000 -1.62296043 -28.85195962 -11.33228206 49.60519260 -12.69609003 43.62943496 -7.81954411 -42.55781288
3757490000 -1.62683337 -28.94862075 -11.33053447 49.57313268 -12.69121206 43.47986478 -7.83447174 -42.62143457
3762480000 -1.62284387 -29.00617098 -11.32354843 49.55772830 -12.68931474 43.54670989 -7.81826440 -42.65115513
3767470000 -1.62557565 -29.03627989 -11.33561600 49.51715090 -12.67920152 43.47100881 -7.82756339 -42.70638282
3772460000 -1.61163472 -29.02786236 -11.32432532 49.55064859 -12.66707633 43.41995611 -7.82401029 -42.66954401
3777450000 -1.60746221 -29.09171061 -11.32004855 49.39931492 -12.65461536 43.46043572 -7.83246193 -42.64214718
3782440000 -1.60855324 -29.13732906 -11.31255231 49.29176039 -12.64276947 43.40153337 -7.83889373 -42.79693242
3787430000 -1.61363369 -29.17937205 -11.31125627 49.30488084 -12.65942041 43.30112732 -7.83171786 -42.76558620
3792420000 -1.62061959 -29.19055145 -11.30908108 49.29316396 -12.64931582 43.29470858 -7.82985153 -42.74666344
3797410000 -1.61509808 -29.24798492 -11.31044362 49.22981513 -12.63594250 43.30062262 -7.83714649 -42.76542326
3802400000 -1.61801353 -29.22312645 -11.30580960 49.19656492 -12.62384592 43.18715292 -7.83868601 -42.74838497
3807390000 -1.61816881 -29.31300930 -11.29029757 49.07399410 -12.63027076 43.18040976 -7.84981151 -42.93289546
3812380000 -1.62642508 -29.27700497 -11.29695496 49.08588473 -12.62658490 43.23753153 -7.85072851 -42.80164596
3817370000 -1.63290859 -29.26643485 -11.29092951 49.00294055 -12.62933089 43.23494695 -7.86262010 -42.87175985
3822360000 -1.63893659 -29.20930427 -11.30790175 49.06390682 -12.63034926 43.20103663 -7.86169653 -42.96818138
3827350000 -1.64939859 -29.26467541 -11.28669480 49.00594742 -12.61415318 43.22712565 -7.85518369 -43.12784923
3832340000 -1.65173280 -29.30495150 -11.28112054 48.94776413 -12.60305866 43.18845857 -7.86028580 -43.08290264
3837330000 -1.66045236 -29.32726206 -11.29781200 48.99558678 -12.59763421 43.07756725 -7.86383195 -43.06751571
3842320000 -1.66150755 -29.35980595 -11.27259373 48.90834772 -12.57287430 43.14382539 -7.86273506 -43.14351286
3847310000 -1.66543314 -29.41082997 -11.27391979 48.89487453 -12.57904900 43.02213295 -7.87003822 -43.08828360
3852300000 -1.68010508 -29.49318494 -11.27748599 48.80786642 -12.56263982 43.00391009 -7.86751514 -43.18619331
3857290000 -1.68277713 -29.54478146 -11.26162558 48.78724059 -12.55474559 43.20726189 -7.86768028 -43.15615166
3862280000 -1.67687896 -29.62881770 -11.25539914 48.68067725 -12.55179878 43.03457054 -7.87306475 -43.22824023
3867270000 -1.67289332 -29.68996605 -11.26398913 48.74354050 -12.54314671 42.86792873 -7.87719995 -43.29986269
3872260000 -1.66900738 -29.71955825 -11.25527082 48.74171870 -12.54334876 42.93609248 -7.85758967 -43.36248392
3877250000 -1.66000723 -29.77190974 -11.23618421 48.58523436 -12.54798184 42.82104668 -7.87088501 -43.34507982
3882240000 -1.66127030 -29.86228920 -11.24353856 48.64500900 -12.51005379 42.81354850 -7.87144914 -43.42069093
3887230000 -1.65899708 -29.89644512 -11.22623792 48.59000010 -12.52265752 42.70912880 -7.86457700 -43.48179058
3892220000 -1.66533510 -29.82473649 -11.24088717 48.47658632 -12.51209000 42.69812098 -7.87635954 -43.40956905
3897210000 -1.66993796 -29.88939548 -11.23908998 48.38477376 -12.50348087 42.73794563 -7.88696500 -43.46718973
3902200000 -1.66875098 -29.96264910 -11.23159031 48.46541088 -12.51788890 42.68725013 -7.87289914 -43.54145645
3907190000 -1.67621101 -29.89142724 -11.22908233 48.47668413 -12.51107464 42.62080511 -7.87431172 -43.45995818
3912180000 -1.67555703 -29.93403526 -11.23348395 48.32372385 -12.49488905 42.51838721 -7.88725589 -43.62246356
3917170000 -1.67323508 -29.92383582 -11.22074035 48.33561989 -12.49289031 42.59782275 -7.89211152 -43.54085234
3922160000 -1.68018949 -29.90080873 -11.22410602 48.28925240 -12.48290602 42.55993635 -7.87778783 -43.62409386
3927150000 -1.68268220 -29.91185598 -11.21460085 48.38404206 -12.48239292 42.52927260 -7.89258631 -43.64930679
3932140000 -1.69480677 -29.94177541 -11.22440397 48.14922380 -12.48199234 42.59909588 -7.88167331 -43.73138362
3937130000 -1.69672343 -29.97907697 -11.20163740 48.11387206 -12.45999461 42.37438658 -7.89074377 -43.77370228
3942120000 -1.70784851 -30.01975910 -11.21656009 48.10844141 -12.46635688 42.40463328 -7.90752732 -43.81883605
3947110000 -1.71011734 -30.03017610 -11.20356386 48.10316521 -12.44893627 42.50490397 -7.88629791 -43.79515540
3952100000 -1.71797869 -30.02279058 -11.20061857 48.03636245 -12.45569743 42.49627349 -7.91463215 -43.93843610
3957090000 -1.71988850 -30.09130659 -11.19076466 48.02098250 -12.43783811 42.42635311 -7.91450273 -43.91938169
3962080000 -1.72590450 -30.14702505 -11.20304587 48.18070672 -12.42887019 42.47657507 -7.90660993 -43.89641983
3967070000 -1.72403971 -30.25424496 -11.18968379 48.02683182 -12.44192607 42.43975080 -7.90365703 -43.97992358
3972060000 -1.72093460 -30.25228563 -11.18759249 48.00055983 -12.42018772 42.46424714 -7.92912539 -43.88100434
3977050000 -1.72263106 -30.35233259 -11.17993079 47.91622300 -12.42084226 42.28524655 -7.90911176 -43.98981354
3982040000 -1.71802223 -30.37107294 -11.17687337 47.85145872 -12.43835673 42.30598856 -7.93652451 -44.03217655
3987030000 -1.71612403 -30.41839416 -11.16475245 47.70050553 -12.40150335 42.24315078 -7.92111944 -44.05889439
3992020000 -1.71983756 -30.49710399 -11.17127581 47.83258377 -12.40201379 42.20718007 -7.90757747 -44.09479862
3997010000 -1.71957616 -30.48402791 -11.16475972 47.71046655 -12.41546712 42.16745229 -7.91014029 -44.13147761
4002000000 -1.70438501 -30.48247435 -11.15427223 47.75384618 -12.40037227 42.11535665 -7.91712694 -44.23651861
4006990000 -1.71089742 -30.52392794 -11.15049190 47.65629163 -12.38370953 42.22470789 -7.91467294 -44.21742665
4011980000 -1.71298875 -30.58490041 -11.16220765 47.62984928 -12.39232470 42.14900585 -7.94032541 -44.21506865
4016970000 -1.72816023 -30.50924733 -11.14820050 47.50811270 -12.38051825 42.06340775 -7.92890897 -44.26687067
4021960000 -1.71324879 -30.58536143 -11.16381648 47.44378240 -12.38567732 42.01760304 -7.92890827 -44.44468194
4026950000 -1.72486822 -30.44709660 -11.17095152 47.55579787 -12.36632009 41.95101305 -7.94347229 -44.32041515
4031940000 -1.72979948 -30.45566710 -11.16096920 47.42873562 -12.35364214 42.12806107 -7.92151300 -44.29109281
4036930000 -1.73174295 -30.55004587 -11.14721828 47.31586952 -12.35859227 42.00692770 -7.93056422 -44.53344492
4041920000 -1.73554723 -30.47945492 -11.14071978 47.49135845 -12.34090789 41.95897163 -7.92727293 -44.45410650
4046910000 -1.75114697 -30.49198278 -11.12971713 47.38233106 -12.34977292 41.93507365 -7.92701403 -44.44617825
4051900000 -1.76014649 -30.57140692 -11.14915611 47.36242049 -12.32489429 41.96719279 -7.95303213 -44.54066673
4056890000 -1.76648697 -30.55203711 -11.13322533 47.32632369 -12.34860104 41.91550070 -7.92688749 -44.44036291
4061880000 -1.77556963 -30.62134910 -11.13036309 47.42176260 -12.32253629 42.06375214 -7.94580588 -44.58926143
4066870000 -1.75170065 -30.63437168 -11.12501189 47.30230974 -12.31562874 41.83617559 -7.93816884 -44.65341725
4071860000 -1.76801092 -30.76083703 -11.12301936 47.13308054 -12.31316266 41.85566913 -7.95841534 -44.64488149
4076850000 -1.76713415 -30.77482429 -11.11516240 47.19171479 -12.28474117 41.90265632 -7.95238507 -44.48361597
4081840000 -1.76058255 -30.82617659 -11.08944895 47.05722960 -12.31774642 41.75561661 -7.96187327 -44.72248603
4086830000 -1.76409535 -30.95882627 -11.11212540 47.00473502 -12.30412466 41.73858150 -7.95182603 -44.65148433
4091820000 -1.75563565 -30.92951502 -11.08463132 47.14881954 -12.30484699 41.69971487 -7.97555356 -44.77492264
4096810000 -1.76103284 -31.06341991 -11.08984000 46.99273138 -12.27953728 41.67308640 -7.96686802 -44.68894198
4101800000 -1.75923053 -31.02803386 -11.08897516 47.00564306 -12.27156882 41.65079927 -7.96762996 -44.85406657
4106790000 -1.75702614 -31.02066805 -11.10215970 46.88685285 -12.27867452 41.55970842 -7.96113117 -44.77380256
4111780000 -1.75723057 -31.06617345 -11.09500605 46.94142252 -12.25398921 41.67908466 -7.94682023 -45.01857622
4116770000 -1.76236577 -31.13144191 -11.08437764 46.80318273 -12.26506173 41.42929450 -7.93675828 -44.84036169
4121760000 -1.76097035 -31.07918560 -11.08970817 46.72766942 -12.23796717 41.37218929 -7.94831481 -44.92750068
4126750000 -1.76075210 -31.00120741 -11.07978573 46.79667614 -12.26069067 41.44977347 -7.96065431 -45.05217123
4131740000 -1.76043985 -31.00152312 -11.07710147 46.78211127 -12.23443670 41.44918745 -7.96958789 -45.03174870
4136730000 -1.76691245 -31.06800582 -11.09605345 46.78573704 -12.23552110 41.40835307 -7.98001791 -45.05826321
4141720000 -1.77365301 -30.99993833 -11.08274210 46.77460381 -12.26918843 41.40424931 -8.00518373 -45.05038265
4146710000 -1.78706987 -31.00381557 -11.07720274 46.72106753 -12.24091422 41.49060580 -7.99037710 -45.12551106
4151700000 -1.79396537 -31.05698742 -11.07553914 46.71872977 -12.22082682 41.33912172 -7.96217014 -45.20440370
4156690000 -1.79186236 -31.03604800 -11.05776824 46.60396706 -12.21506527 41.45518683 -7.97094504 -45.21494020
4161680000 -1.80386973 -31.11408814 -11.05921156 46.66409560 -12.21085591 41.26404313 -7.95841706 -45.22597800
4166670000 -1.79949224 -31.23134078 -11.06023750 46.49245464 -12.23133026 41.31311938 -7.97635988 -45.24812824
4171660000 -1.81754240 -31.20726642 -11.05538621 46.60147259 -12.20588397 41.25101506 -7.98109198 -45.42126009
4176650000 -1.79398613 -31.24109146 -11.02304064 46.49658366 -12.17837937 41.24339157 -7.98249907 -45.39045876
4181640000 -1.81348381 -31.31607532 -11.04652452 46.47803212 -12.18833551 41.23761458 -7.97511944 -45.38619923
4186630000 -1.81548322 -31.34280751 -11.03572318 46.29274131 -12.18056369 41.15081340 -7.98878809 -45.39229425
4191620000 -1.80736692 -31.42986530 -11.05006648 46.35370960 -12.18012357 41.17434281 -8.00252929 -45.45886744
4196610000 -1.80158081 -31.42018965 -11.03198792 46.32854969 -12.17303315 41.12453857 -7.99092126 -45.46738611
4201600000 -1.81199499 -31.51779716 -11.01844948 46.29472064 -12.15912210 41.03067025 -7.98524154 -45.46595520
4206590000 -1.79887793 -31.52160656 -11.03656237 46.37192143 -12.18900118 41.10319704 -8.01382599 -45.48515896
4211580000 -1.80045404 -31.52975878 -11.03676122 46.22808200 -12.17848213 41.04639205 -8.01056649 -45.51370903
4216570000 -1.80746304 -31.51678953 -11.01228864 46.13125576 -12.16304213 41.04198381 -8.00337369 -45.56535313
4221560000 -1.79160870 -31.53235394 -11.01829618 46.13625202 -12.13686708 41.07148741 -8.00717421 -45.58210973
4226550000 -1.80163766 -31.52026854 -11.02398551 46.14922487 -12.16078380 41.09934809 -8.02529501 -45.63655697
4231540000 -1.80351394 -31.55334301 -11.01219387 46.03719301 -12.15570684 41.00082571 -7.99707030 -45.70574214
4236530000 -1.80828603 -31.50954834 -11.01936994 46.00294454 -12.16517411 40.90233533 -8.01694606 -45.75250230
4241520000 -1.81284146 -31.50478358 -11.01533940 45.99142636 -12.14262782 40.87386345 -7.99951437 -45.74879137
4246510000 -1.82222027 -31.50885860 -10.99989861 46.02749273 -12.14753856 40.96660817 -8.00522022 -45.89168369
4251500000 -1.82708041 -31.48124683 -11.00837959 46.11095840 -12.12032752 40.85494062 -8.01203351 -45.80668072
4256490000 -1.83302889 -31.46676903 -10.98163164 45.92669202 -12.10708055 40.80803691 -8.00535613 -45.90973426
4261480000 -1.84665557 -31.60212829 -10.99830020 45.97114588 -12.10910509 40.92931934 -8.00495154 -45.85358920
4266470000 -1.85273985 -31.56274364 -10.99409647 45.89082163 -12.10929462 40.81811453 -8.01982263 -45.95919047
4271460000 -1.85371477 -31.56589119 -10.97636536 46.00831987 -12.08234034 40.90350880 -8.00910877 -45.95667327
4276450000 -1.84833020 -31.61284945 -10.96981073 45.88720058 -12.10863117 40.79659296 -8.01907017 -45.96769726
4281440000 -1.85504683 -31.67587999 -10.97102013 45.76695816 -12.08030223 40.87797327 -8.01309534 -46.07523747
4286430000 -1.86524653 -31.79424225 -10.96864806 45.67847476 -12.10380919 40.77696597 -8.02925702 -46.04947561
4291420000 -1.85358553 -31.80425140 -10.97414878 45.70031921 -12.08269017 40.66896856 -8.02834884 -46.05124788
4296410000 -1.84714200 -31.86803830 -10.94751211 45.69042441 -12.08498662 40.66435385 -8.03152534 -46.22641963
4301400000 -1.85429026 -31.88321299 -10.96984169 45.65240139 -12.08687089 40.69796176 -8.02483848 -46.14927885
4306390000 -1.85199796 -31.98416357 -10.95295680 45.60389572 -12.06857605 40.61412952 -8.03716386 -46.28438297
4311380000 -1.85515348 -31.89727970 -10.96038342 45.54431769 -12.06799755 40.58309009 -8.05001581 -46.28017834
4316370000 -1.85466547 -31.95938177 -10.95477795 45.55011181 -12.05105526 40.58786609 -8.04818960 -46.31587222
4321360000 -1.84757688 -32.00782809 -10.96559234 45.52492293 -12.06477051 40.59416576 -8.03189085 -46.20931542
4326350000 -1.84452630 -31.97098766 -10.95722702 45.49087018 -12.05516707 40.48943872 -8.03572361 -46.46397633
4331340000 -1.85312481 -31.98243316 -10.95450510 45.46473782 -12.05340484 40.53437125 -8.04783367 -46.32752915
4336330000 -1.85076489 -32.00634886 -10.94168483 45.56854403 -12.04398569 40.43576972 -8.06460805 -46.36979370
4341320000 -1.84865411 -31.95401470 -10.93291067 45.37188962 -12.04732115 40.48655103 -8.05555626 -46.44849097
4346310000 -1.85639803 -31.88748196 -10.94254137 45.37350062 -12.03990095 40.47728081 -8.05621087 -46.39711880
4351300000 -1.86847692 -31.89958161 -10.92870945 45.36623438 -12.01046358 40.59341259 -8.05939001 -46.51454436
4356290000 -1.87635275 -31.95256902 -10.93946944 45.42165992 -12.03102357 40.43682469 -8.05162243 -46.57459860
4361280000 -1.88504550 -31.99315152 -10.93733043 45.21376692 -12.01110168 40.28940478 -8.05205683 -46.67230880
4366270000 -1.88113330 -31.97140150 -10.91381249 45.33396052 -11.99984383 40.29472893 -8.05031612 -46.69981140
4371260000 -1.89338893 -32.07117031 -10.92340273 45.14675765 -12.01860034 40.28743204 -8.04529854 -46.62943096
4376250000 -1.90146820 -32.03302665 -10.91526460 45.20576315 -12.00484660 40.24904280 -8.06267490 -46.77020086
4381240000 -1.88043861 -32.05309006 -10.90376089 45.15808059 -11.99169800 40.31445887 -8.04771219 -46.74513754
4386230000 -1.89291012 -32.10581295 -10.90628548 45.10905076 -11.98994656 40.32482408 -8.05938320 -46.77469903
4391220000 -1.90696544 -32.18448226 -10.90936301 45.07195099 -11.97843935 40.16746345 -8.03935110 -46.75982609
4396210000 -1.90637063 -32.22647431 -10.91110559 45.08185999 -11.97349734 40.20563498 -8.05838452 -46.86243160
4401200000 -1.89759285 -32.28902719 -10.89823756 45.04043144 -11.96936652 40.15406743 -8.05197198 -46.71221838
4406190000 -1.90262606 -32.33685706 -10.89456185 45.04892064 -11.96554421 40.09390450 -8.04922729 -46.88323066
4411180000 -1.89526514 -32.36130150 -10.90097478 45.02886438 -11.96908856 40.13523656 -8.08064366 -46.91184532
4416170000 -1.89982049 -32.40474811 -10.89479119 44.95616339 -11.97156156 40.11532369 -8.08526991 -46.84038358
4421160000 -1.89676921 -32.42295756 -10.88151110 44.85082793 -11.95667307 40.09952471 -8.07191733 -46.93130824
4426150000 -1.89855401 -32.36724413 -10.88499479 44.88305622 -11.95770407 40.07473998 -8.08833341 -47.03260462
4431140000 -1.89802366 -32.40900267 -10.87595524 44.82609772 -11.93811206 39.89557751 -8.08834214 -47.08709427
4436130000 -1.89842539 -32.40536427 -10.88633569 44.83478395 -11.94033165 39.98639771 -8.09634443 -47.06703552
4441120000 -1.89850419 -32.41606305 -10.87070096 44.68727684 -11.94208486 39.90896955 -8.09038521 -47.19679195
4446110000 -1.89539402 -32.43861182 -10.87747359 44.83594538 -11.94211090 39.90514713 -8.09799725 -47.23409816
4451100000 -1.90024475 -32.41799738 -10.87945935 44.56796307 -11.93009115 39.89066073 -8.09448032 -47.30608545
4456090000 -1.90290725 -32.39526828 -10.86136509 44.72035361 -11.90814560 39.90696121 -8.10545146 -47.26899563
4461080000 -1.91192676 -32.39750384 -10.87344773 44.65769433 -11.91420928 39.93175455 -8.10073196 -47.29812687
4466070000 -1.92045308 -32.37798310 -10.86245870 44.47977932 -11.91835392 39.90683587 -8.09442074 -47.48308367
4471060000 -1.92418873 -32.37701621 -10.86022926 44.64919891 -11.88338048 39.81591361 -8.08230491 -47.35608965
4476050000 -1.92334090 -32.41104574 -10.84850861 44.59543768 -11.88598321 39.85031548 -8.08353877 -47.48740974
4481040000 -1.93491167 -32.47675239 -10.83795058 44.42112548 -11.89807033 39.66858853 -8.09462314 -47.43102752
4486030000 -1.93581123 -32.47416413 -10.85043074 44.53670867 -11.87896807 39.78646115 -8.09891654 -47.47062510
4491020000 -1.94450203 -32.49949458 -10.84540090 44.59610257 -11.88993193 39.72818648 -8.10614809 -47.43467709
4496010000 -1.94454927 -32.65316773 -10.83836870 44.47029548 -11.88094296 39.87125327 -8.11161686 -47.37645320
4501000000 -1.94581100 -32.62519368 -10.84125197 44.53069149 -11.87477067 39.86336720 -8.09057272 -47.41213517
4505990000 -1.94614868 -32.74536082 -10.83393179 44.41689135 -11.85730380 39.62397184 -8.10931568 -47.54874202
4510980000 -1.94137151 -32.79238350 -10.83036121 44.45181280 -11.87321797 39.73618225 -8.09183888 -47.51095307
4515970000 -1.94790376 -32.77112175 -10.82729648 44.36737021 -11.87059120 39.51361154 -8.11774208 -47.56561850
4520960000 -1.94766939 -32.83760564 -10.84525573 44.41756685 -11.83498676 39.52993897 -8.10714261 -47.52688550
4525950000 -1.93209976 -32.81826925 -10.82445842 44.22775522 -11.84840259 39.60235700 -8.13002323 -47.63547296
4530940000 -1.94205572 -32.86658509 -10.81549917 44.30675913 -11.83303000 39.65020478 -8.09869588 -47.68670775
4535930000 -1.93691101 -32.90950906 -10.80956645 44.14756984 -11.84068610 39.64137018 -8.13945589 -47.68813932
4540920000 -1.92136428 -32.88901997 -10.80966406 44.15871047 -11.81995855 39.54783640 -8.13696496 -47.73232620
4545910000 -1.93664654 -32.86097957 -10.81847333 44.14094934 -11.81845662 39.35744269 -8.14266201 -47.82639653
4550900000 -1.94852014 -32.90541071 -10.79531639 44.07950055 -11.82807503 39.38449441 -8.12603664 -47.84542297
4555890000 -1.95786559 -32.83711836 -10.80944852 44.10881102 -11.81285275 39.42871991 -8.12159568 -47.85906369
4560880000 -1.95530425 -32.87240374 -10.79531973 44.08589435 -11.81261182 39.45301916 -8.12918924 -47.90165905
4565870000 -1.96596631 -32.89083741 -10.79766035 43.93506635 -11.79459526 39.25760622 -8.14514502 -48.06619928
4570860000 -1.95901611 -32.88179480 -10.79184504 43.91859514 -11.81218031 39.36766952 -8.12214608 -48.07407420
4575850000 -1.96536837 -32.86689091 -10.78292380 43.93990967 -11.78633128 39.33215980 -8.13533884 -48.10528803
4580840000 -1.97377285 -32.87146360 -10.78031376 44.06178311 -11.78314287 39.29393367 -8.12697519 -48.07209160
4585830000 -1.98175812 -32.93557221 -10.77656173 43.99963508 -11.80036536 39.34446230 -8.13245338 -48.15181488
4590820000 -1.98389699 -32.97386513 -10.77940714 43.89198915 -11.77603873 39.32657734 -8.14086495 -48.19233948
4595810000 -1.99998862 -32.98121151 -10.78119575 43.85615794 -11.79072711 39.27005262 -8.13868157 -48.15216684
4600800000 -1.99618026 -33.05673682 -10.77920066 43.77395725 -11.78819215 39.26007476 -8.15693496 -48.14394551
4605790000 -1.99209556 -33.11955794 -10.76788902 43.79345780 -11.76498293 39.30064516 -8.16388836 -48.10992314
4610780000 -1.99331131 -33.12472461 -10.76629196 43.79687013 -11.76614418 39.13543185 -8.14632177 -48.24826078
4615770000 -1.99866550 -33.18684006 -10.76656472 43.77923644 -11.77160315 39.05137421 -8.13600101 -48.16849678
4620760000 -1.99686533 -33.28906403 -10.75044928 43.79564930 -11.75492445 39.13634091 -8.16209174 -48.23082926
4625750000 -1.99124770 -33.31137354 -10.75994845 43.66739348 -11.76632635 39.08982153 -8.15355036 -48.25525097
4630740000 -1.98737077 -33.32938335 -10.74921940 43.68208156 -11.75653122 39.21681049 -8.17444756 -48.27958200
4635730000 -1.99138980 -33.35635780 -10.73615172 43.59925341 -11.75326337 39.07547249 -8.16368714 -48.32965672
4640720000 -1.98441302 -33.35068719 -10.74460693 43.48441456 -11.73162683 38.90428924 -8.16399554 -48.35381995
4645710000 -1.99399007 -33.39292796 -10.74358671 43.40955898 -11.73671132 38.96108736 -8.17755647 -48.37332824
4650700000 -1.98731209 -33.36838764 -10.73980190 43.41333025 -11.73564273 39.02999381 -8.18658470 -48.48914550
4655690000 -1.98679809 -33.34363018 -10.72766570 43.44658809 -11.72646725 38.96899567 -8.19568482 -48.37844802
4660680000 -1.99702758 -33.36052824 -10.73708923 43.39807769 -11.73660926 38.82688334 -8.18737665 -48.43565834
4665670000 -1.99808934 -33.30938821 -10.72660730 43.41988329 -11.71768859 38.88071684 -8.18946323 -48.53300542
4670660000 -1.99795904 -33.36229948 -10.74044876 43.33341964 -11.71812311 38.77717579 -8.16332222 -48.60408621
4675650000 -2.00083516 -33.40478727 -10.72577336 43.26719157 -11.71272070 38.88408742 -8.18776664 -48.63600303
4680640000 -2.01803891 -33.35951917 -10.73069526 43.38672489 -11.70087625 38.78156887 -8.17789115 -48.75841490
4685630000 -2.02201315 -33.37423144 -10.72445612 43.27099643 -11.68716272 38.67065060 -8.18500852 -48.81172059
4690620000 -2.02805283 -33.41321538 -10.70630753 43.18432767 -11.69352733 38.73186966 -8.18025750 -48.82859200
4695610000 -2.02275780 -33.42042999 -10.71066667 43.27946106 -11.67864738 38.70655868 -8.18076314 -48.85598758
4700600000 -2.04039249 -33.46961410 -10.71070754 43.20062963 -11.68162141 38.69548616 -8.16517962 -48.99718112
4705590000 -2.03656020 -33.56236009 -10.69251528 43.17056364 -11.67134927 38.71373086 -8.17049599 -48.79262523
4710580000 -2.03893638 -33.63406870 -10.70065654 43.16749912 -11.66648527 38.62132102 -8.15790482 -48.84161818
4715570000 -2.04176418 -33.64197569 -10.68968666 43.20472875 -11.65047482 38.69949168 -8.17276032 -48.78229386
4720560000 -2.04276016 -33.71407549 -10.68562961 42.99774528 -11.65736516 38.61283544 -8.18346509 -48.90343624
4725550000 -2.04042822 -33.75398661 -10.68067656 43.00163082 -11.65451154 38.59846403 -8.17669902 -48.91273021
4730540000 -2.03932220 -33.81232859 -10.67426221 43.00086366 -11.64292315 38.54826693 -8.17618073 -48.92891050
4735530000 -2.03307490 -33.79924364 -10.68738901 42.98871750 -11.65216666 38.56273611 -8.18531199 -48.92258419
4740520000 -2.04208250 -33.82312304 -10.68760541 42.87347166 -11.64861303 38.63587711 -8.19655457 -48.87132688
4745510000 -2.03213897 -33.84401455 -10.66211181 43.00461852 -11.64425947 38.52519108 -8.20165028 -48.97246777
4750500000 -2.04142069 -33.95049494 -10.68347045 42.75420321 -11.62889162 38.40160034 -8.21928958 -48.95550962
4755490000 -2.05015592 -33.93789592 -10.66736006 42.83204253 -11.62716860 38.35922346 -8.19974284 -49.00836550
4760480000 -2.04036596 -33.86907599 -10.67861584 42.84758683 -11.63254487 38.41589823 -8.22531660 -49.00914829
4765470000 -2.04210487 -33.85211775 -10.66795899 42.80705527 -11.62066588 38.34683354 -8.22584464 -49.10111385
4770460000 -2.05310145 -33.92851170 -10.67631325 42.76255026 -11.61709716 38.32211127 -8.21882826 -49.22155719
4775450000 -2.05536354 -33.87814454 -10.65875092 42.67012051 -11.61403949 38.36376044 -8.21554489 -49.25233992
4780440000 -2.05162401 -33.88365468 -10.65249267 42.65297676 -11.61085069 38.23018728 -8.21845475 -49.29963305
4785430000 -2.06305509 -33.93743387 -10.65017339 42.68383204 -11.59839988 38.31023996 -8.23055678 -49.36183798
4790420000 -2.07535435 -33.89466884 -10.64693256 42.71929932 -11.59231520 38.34136022 -8.19988466 -49.37447791
4795410000 -2.07242899 -33.86692840 -10.65623574 42.62735094 -11.60997095 38.25115528 -8.21816907 -49.40747855
4800400000 -2.07077867 -33.91902596 -10.64242030 42.65765366 -11.59526511 38.24686688 -8.19319259 -49.43518836
4805390000 -2.08987721 -33.98605465 -10.65329785 42.58039131 -11.58102565 38.19922522 -8.19985011 -49.48355406
4810380000 -2.08897842 -34.04311447 -10.64929116 42.49549798 -11.57352946 38.12211128 -8.21644624 -49.47706168
4815370000 -2.08720134 -34.13345884 -10.63987086 42.57921850 -11.58098521 38.20073464 -8.21393923 -49.37553497
4820360000 -2.09863118 -34.15709904 -10.64204876 42.47955806 -11.56250910 38.10537546 -8.21400911 -49.45040014
4825350000 -2.09858815 -34.19563069 -10.63761456 42.52477925 -11.57844002 38.18683874 -8.21018473 -49.34095342
4830340000 -2.09158682 -34.19285239 -10.62726778 42.39007245 -11.56492749 38.16675382 -8.23112254 -49.35831973
4835330000 -2.09159385 -34.28651550 -10.62908711 42.34314658 -11.56830332 38.18865331 -8.22490098 -49.49969844
4840320000 -2.09610966 -34.30862394 -10.62890198 42.39010478 -11.56048713 38.06855989 -8.23006704 -49.45942553
4845310000 -2.08943404 -34.35266501 -10.62232904 42.33029978 -11.55609880 38.02527952 -8.23149076 -49.51823736
4850300000 -2.09176436 -34.36074235 -10.61297929 42.30541980 -11.55175655 38.05945971 -8.23394076 -49.67770775
4855290000 -2.08268874 -34.40783439 -10.61466578 42.29031155 -11.53697309 37.95634669 -8.25276396 -49.58066849
4860280000 -2.08286954 -34.41231448 -10.61593434 42.13990322 -11.54601787 37.89885422 -8.25894918 -49.60848788
4865270000 -2.08541100 -34.43637124 -10.62239703 42.21168247 -11.53533760 37.91176745 -8.25956776 -49.75510151
4870260000 -2.10071748 -34.41497491 -10.60203832 42.11303481 -11.53865095 37.86043557 -8.26129154 -49.75069354
4875250000 -2.10086643 -34.45091181 -10.60854280 42.03713823 -11.52419447 37.84499715 -8.27033085 -49.70918185
4880240000 -2.10204042 -34.38392575 -10.60955914 42.01716626 -11.54003975 37.93099862 -8.25564829 -49.85784389
4885230000 -2.10226146 -34.41746825 -10.59940700 41.96612566 -11.53477475 37.82292769 -8.26865757 -49.85367345
4890220000 -2.11194274 -34.39390275 -10.60814096 42.05332988 -11.51381185 37.82931480 -8.27609245 -49.94487912
4895210000 -2.12353315 -34.43744850 -10.60536826 41.94833012 -11.52095915 37.80037475 -8.27664613 -50.05895789
4900200000 -2.11831149 -34.44047077 -10.60001000 42.03046093 -11.51856870 37.83622409 -8.26896878 -50.02339179
4905190000 -2.12100463 -34.50813037 -10.58426384 42.10676320 -11.50584856 37.78259912 -8.27331710 -50.05471951
4910180000 -2.13712763 -34.49099630 -10.59201348 41.93768436 -11.51355228 37.79805013 -8.26345541 -50.02282915
4915170000 -2.14019635 -34.59522759 -10.58897874 41.88424884 -11.49837935 37.74556475 -8.25414022 -50.21487048
4920160000 -2.13346297 -34.65373485 -10.57562578 41.92808449 -11.49144417 37.69460456 -8.26930527 -50.04184606
4925150000 -2.13884508 -34.62044673 -10.57556905 41.82667755 -11.48349271 37.74359329 -8.27008446 -50.13722107
4930140000 -2.14835281 -34.75638521 -10.56855302 41.77633600 -11.50092245 37.56635741 -8.27455674 -50.15207543
4935130000 -2.14530285 -34.75609895 -10.58002284 41.75946249 -11.48574336 37.54102615 -8.28174769 -50.21143639
4940120000 -2.14306421 -34.78096795 -10.56688899 41.72834350 -11.47200889 37.60135565 -8.29314969 -50.17377049
4945110000 -2.15120860 -34.87155127 -10.56899687 41.64823885 -11.49512567 37.64825380 -8.28270377 -50.15176295
4950100000 -2.14149599 -34.86915283 -10.57342472 41.69367827 -11.47359540 37.59835332 -8.27866722 -50.23093020
4955090000 -2.14689135 -34.92721546 -10.57194183 41.67906025 -11.46507733 37.48075378 -8.28889809 -50.28665902
4960080000 -2.13986872 -34.96846029 -10.56175387 41.64466161 -11.47504305 37.45387594 -8.29740012 -50.35075764
4965070000 -2.14724373 -34.97101930 -10.55830356 41.58043005 -11.46581234 37.38417034 -8.30102594 -50.34570918
4970060000 -2.13891038 -35.00092928 -10.55810588 41.49625372 -11.46691460 37.40033996 -8.28854821 -50.33367761
4975050000 -2.13459459 -34.98171097 -10.54186972 41.51655972 -11.46310316 37.36530213 -8.29819608 -50.38067283
4980040000 -2.13891507 -34.98009390 -10.54045687 41.44135854 -11.44891408 37.36116468 -8.29292129 -50.46234395
4985030000 -2.14987037 -34.97780373 -10.53462361 41.45770256 -11.43359840 37.40721403 -8.30212988 -50.48561143
4990020000 -2.15439069 -34.98341964 -10.53550070 41.34253861 -11.45264325 37.30363470 -8.30716240 -50.64272149
4995010000 -2.16100762 -35.00945096 -10.53126996 41.39581357 -11.45029380 37.24403794 -8.30025658 -50.61346735
5000000000 -2.16626621 -34.99249210 -10.54900111 41.46119987 -11.44505339 37.29256056 -8.30271823 -50.60788212