! Forward-simulated: Re-embedded (raw/measured) — deemb_preext_vce3.5_ib80u.s2p
!   source_deembedded_file = deemb_preext_vce3.5_ib80u.s2p
!   Cpbe_fF = 22.0
!   Cpce_fF = 18.0
!   Cpbc_fF = 5.0
!   Lb_pH = 45.0
!   Lc_pH = 42.0
!   Le_pH = 6.0
!   Rpb_ohm = 0.0
!   Rpc_ohm = 0.0
!   Rpe_ohm = 0.0
# Hz S DB R 50
10000000 -0.04224150 -0.39221220 -11.66901289 174.91866601 -44.26917534 20.99343548 0.08069131 -1.11459446
14990000 -0.06411226 -0.28307209 -11.66779359 172.56282580 -44.83487719 65.19768865 0.09277569 -1.40023474
19980000 -0.05663222 -0.36812786 -11.74091496 170.46119462 -44.67068115 62.07169871 0.08270546 -2.09848760
24970000 -0.08104081 -0.44196216 -11.81249962 168.52148883 -42.76266449 73.41109727 0.07379256 -2.30742319
29960000 -0.07459328 -0.62386934 -11.93438052 166.32222131 -40.81044811 76.90250953 0.03559053 -3.02559231
34950000 -0.07807973 -0.58018639 -12.01545649 164.43460981 -39.96936102 76.40431073 0.01516709 -3.42259173
39940000 -0.07789899 -0.62190350 -12.12644732 162.45201796 -39.11157899 77.34743287 0.00480618 -3.76556941
44930000 -0.07658439 -0.75518498 -12.21449339 160.50627774 -38.10984277 78.79136968 -0.02709155 -4.21587111
49920000 -0.08345532 -0.75779952 -12.32269001 158.80714803 -37.19035661 74.75706478 -0.06230766 -4.60649902
54910000 -0.08847684 -0.90614483 -12.45880622 157.05714261 -36.77395817 69.59365309 -0.10435411 -4.81867591
59900000 -0.09385722 -0.90175015 -12.55301084 155.45877529 -35.42251554 72.15414060 -0.11622042 -5.23100801
64890000 -0.08473032 -1.13617854 -12.67419674 153.51464805 -35.51026915 72.49189212 -0.21769092 -5.68489941
69880000 -0.08775713 -1.14728823 -12.75749991 152.21964650 -34.37363315 73.10341090 -0.20987495 -5.95403560
74870000 -0.11345422 -1.29169098 -12.88587399 150.63065762 -33.85863051 74.41245002 -0.25132285 -6.17293339
79860000 -0.12128750 -1.30204758 -12.98689112 148.66263989 -33.53305429 70.16062796 -0.31134825 -6.42790170
84850000 -0.12234395 -1.44884739 -13.13040387 147.59196204 -33.23627523 68.02384143 -0.34101182 -6.71369495
89840000 -0.12610945 -1.53177141 -13.25358258 145.86492835 -32.91306139 67.01984698 -0.39706800 -6.92783877
94830000 -0.14537705 -1.55741629 -13.38130457 144.85952202 -32.50762126 67.50401589 -0.43291418 -7.23963298
99820000 -0.15480791 -1.60209355 -13.49088826 143.33154399 -31.97919119 66.63732432 -0.46658241 -7.37460084
104810000 -0.15916179 -1.74162553 -13.61745810 142.14649920 -31.69476087 66.02418605 -0.50798056 -7.60783874
109800000 -0.16707974 -1.69271982 -13.75208431 140.97463718 -31.44958609 65.32610704 -0.54332722 -7.73596263
114790000 -0.16718361 -1.76114531 -13.86667606 139.76788591 -31.22185165 65.94897959 -0.57887453 -7.93431344
119780000 -0.16739325 -1.76174001 -13.96843828 138.73313683 -31.03063375 64.56511868 -0.61465532 -8.03992877
124770000 -0.16334794 -1.77271957 -14.08172630 137.46280011 -30.73476611 64.33237288 -0.64667035 -8.19875345
129760000 -0.16737684 -1.85865054 -14.16438764 136.35365465 -30.49093446 64.17289919 -0.67068910 -8.30984242
134750000 -0.17278189 -1.89689855 -14.28526702 135.58013878 -30.23384604 63.16323608 -0.70922024 -8.43061551
139740000 -0.16225945 -1.86445775 -14.39040097 134.49564908 -30.05885447 62.90793294 -0.73586341 -8.60328200
144730000 -0.15991734 -1.92735422 -14.47829192 133.66430572 -29.73360718 62.97926948 -0.75633695 -8.64402985
149720000 -0.15645160 -1.96240778 -14.57360528 132.46640657 -29.66787563 62.33067088 -0.78518802 -8.79633705
154710000 -0.16486868 -2.02039912 -14.69134423 131.58920586 -29.49022550 61.48847923 -0.81897220 -8.94088048
159700000 -0.16399402 -2.05108601 -14.78944831 130.63778049 -29.33632185 60.97549665 -0.85273045 -9.00093122
164690000 -0.15548701 -2.10304162 -14.87351473 129.64498955 -29.09545825 61.31556915 -0.88159626 -9.04867482
169680000 -0.16894600 -2.16557624 -14.96430048 128.95595170 -28.91528943 61.01341683 -0.90555547 -9.15362140
174670000 -0.17250404 -2.18831050 -15.06555613 128.05728377 -28.86245244 60.51858387 -0.93755055 -9.26130295
179660000 -0.16391719 -2.31236879 -15.14174712 127.23493437 -28.58306070 60.19146361 -0.97231026 -9.34884970
184650000 -0.17947360 -2.37518129 -15.22139217 126.54488313 -28.45672331 59.13484906 -0.98960818 -9.31540086
189640000 -0.19135967 -2.44023657 -15.33873142 125.58168969 -28.39581155 59.72302957 -1.01960375 -9.58068208
194630000 -0.20225556 -2.46708045 -15.37992571 125.01463553 -28.24129402 59.64387424 -1.06883055 -9.57382381
199620000 -0.21999992 -2.45976276 -15.50697408 124.23706003 -28.30968215 59.26801185 -1.08253277 -9.71044690
204610000 -0.23699495 -2.31919096 -15.58954506 123.59687823 -28.05427742 59.52514243 -1.13343492 -9.66639552
209600000 -0.19727095 -2.49892364 -15.62254034 122.83109643 -27.88012303 59.39717567 -1.15413509 -9.71521968
214590000 -0.22025625 -2.73742013 -15.78335499 121.79363267 -27.72500158 60.03793436 -1.18623769 -9.40618708
219580000 -0.23071511 -2.70566692 -15.78590610 121.24505866 -27.72902615 58.53619735 -1.11534080 -9.64612590
224570000 -0.23572023 -2.65696633 -15.91715760 120.46094151 -27.51139172 58.77205461 -1.15575768 -9.92415438
229560000 -0.22313837 -2.59186874 -16.00193981 119.72757775 -27.43123257 59.06851223 -1.18438457 -10.00563559
234550000 -0.21991615 -2.53733262 -16.07730139 119.45262080 -27.33991497 58.78395743 -1.21343961 -10.04001788
239540000 -0.22574749 -2.58919981 -16.09786331 118.90920440 -27.19965833 58.96046319 -1.22873296 -10.06916094
244530000 -0.21087004 -2.71688931 -16.16792453 118.15224647 -27.06235826 58.09016827 -1.24277973 -10.16708617
249520000 -0.18085904 -2.77344896 -16.23175759 117.75109137 -26.98156331 58.71898288 -1.26255836 -10.14550630
254510000 -0.20152799 -2.72354354 -16.23543597 117.22202375 -26.91485356 59.40232253 -1.27087011 -10.20312272
259500000 -0.19084088 -2.78693265 -16.27304017 116.45743927 -26.79989157 57.93722820 -1.29771277 -10.24011202
264490000 -0.22677605 -2.75280966 -16.42033460 116.53152560 -26.59707319 58.58132508 -1.31592025 -10.29999328
269480000 -0.17554957 -2.89843634 -16.46485660 115.31103406 -26.59291107 58.31355425 -1.32644113 -10.34191940
274470000 -0.19029586 -2.89337127 -16.45836576 114.83460289 -26.71412348 58.90153360 -1.34057548 -10.38715553
279460000 -0.18654512 -3.00654166 -16.58253501 114.41355188 -26.35894605 57.00266313 -1.35301444 -10.45117546
284450000 -0.18123264 -2.98280557 -16.54798182 114.09786727 -26.42069005 58.24640138 -1.37306664 -10.51692300
289440000 -0.19204325 -3.02163127 -16.59124668 113.11338950 -26.34149320 58.13824753 -1.38404457 -10.53939061
294430000 -0.20815926 -3.15289661 -16.70164164 112.74808778 -26.22287479 57.10629830 -1.41100294 -10.64692149
299420000 -0.21982121 -3.09090960 -16.73095647 112.27313658 -26.12066401 58.18836742 -1.43648247 -10.68434146
304410000 -0.21269628 -3.30292766 -16.78510459 111.70530067 -25.85675965 58.68663808 -1.46115358 -10.72012651
309400000 -0.23093047 -3.46262596 -16.88067569 111.03227911 -25.93306622 57.10684222 -1.47747701 -10.79728796
314390000 -0.27275946 -3.41878013 -16.85339827 110.78106626 -25.79913319 57.62167788 -1.49909095 -10.80570191
319380000 -0.26829128 -3.48665671 -16.86154000 110.07220570 -25.68118718 57.29667244 -1.49401621 -10.74395731
324370000 -0.25252221 -3.51087087 -16.94951747 109.55662029 -25.73416810 58.41714594 -1.48330938 -10.76916913
329360000 -0.26117974 -3.35329586 -17.02032552 109.03702422 -25.51857322 58.18196618 -1.48518475 -10.86830476
334350000 -0.27277852 -3.40050266 -17.05413953 108.75994047 -25.59909995 57.50897219 -1.50050783 -10.94221750
339340000 -0.24097172 -3.44587638 -17.07900317 108.21607568 -25.54097744 57.61787567 -1.51309869 -11.06225289
344330000 -0.24288305 -3.40642390 -17.10435580 108.13832172 -25.52024191 58.18083788 -1.53799273 -11.05361899
349320000 -0.21937147 -3.33494249 -17.06539324 107.77643621 -25.30253473 57.83543844 -1.53916833 -11.05743621
354310000 -0.21818164 -3.53282446 -17.19486984 107.16403654 -25.24063551 57.83714259 -1.53798628 -11.15905580
359300000 -0.20943899 -3.35438889 -17.18415361 107.14694517 -25.19494704 58.35209994 -1.54987665 -11.19959072
364290000 -0.19296146 -3.52052611 -17.24871199 106.50948230 -25.05852139 58.47434061 -1.56156365 -11.25956494
369280000 -0.18839223 -3.47936573 -17.22261193 106.25680814 -25.02389284 57.94465059 -1.56992041 -11.28841326
374270000 -0.16906594 -3.58111354 -17.22557039 105.56017414 -24.90519708 58.26501467 -1.58057846 -11.32090662
379260000 -0.16945340 -3.62286153 -17.25726407 105.29175914 -24.87569395 57.81621393 -1.60707128 -11.36899864
384250000 -0.18032161 -3.72574327 -17.25256930 104.70946714 -24.70958436 57.89688168 -1.60943950 -11.37819076
389240000 -0.18438490 -3.75873856 -17.25995793 104.62115402 -24.72636337 58.02660923 -1.62146408 -11.57115040
394230000 -0.18834261 -3.87996836 -17.34727066 103.82786323 -24.71221631 57.97841252 -1.63778342 -11.52169678
399220000 -0.18599711 -4.08152660 -17.32152921 103.58222322 -24.55450922 58.26369656 -1.64494024 -11.57937845
404210000 -0.19258598 -4.07685167 -17.38897642 103.14827357 -24.56400100 57.99414749 -1.65316531 -11.63834132
409200000 -0.20378231 -4.18971019 -17.37990076 102.96774787 -24.42051709 57.70053219 -1.67329722 -11.75189206
414190000 -0.20386698 -4.32347420 -17.39568844 102.22577844 -24.39056342 57.82475568 -1.68261203 -11.74272875
419180000 -0.22192098 -4.45168991 -17.38935377 102.07391879 -24.38657629 57.78449201 -1.69696712 -11.83203828
424170000 -0.23149460 -4.55317984 -17.43636102 101.44019936 -24.23396683 57.99094899 -1.70533041 -11.79831450
429160000 -0.25221845 -4.55857251 -17.45179387 101.24470327 -24.20940152 57.56176368 -1.70924475 -11.91405905
434150000 -0.26712026 -4.51135962 -17.51038020 100.99929695 -24.13452319 57.63847580 -1.71926468 -11.95712882
439140000 -0.27169550 -4.41318134 -17.53369016 100.54994857 -24.09664243 57.84765972 -1.72059598 -12.01100868
444130000 -0.27654871 -4.25683669 -17.54131901 100.60554004 -24.02662694 57.64212224 -1.72469909 -11.99466340
449120000 -0.26659801 -4.24984445 -17.51542044 99.81911754 -23.98417645 58.46852406 -1.72273184 -12.06368241
454110000 -0.24388024 -4.13539849 -17.53609906 99.98594948 -23.94178203 58.05909195 -1.73945316 -12.10509592
459100000 -0.21694930 -4.05196481 -17.54950666 99.89958486 -23.86612890 58.19514473 -1.73533480 -12.14904579
464090000 -0.20127623 -4.15550946 -17.56385166 99.57486591 -23.79570948 58.18617169 -1.74666120 -12.23165073
469080000 -0.17378345 -4.20245753 -17.57535492 99.14265745 -23.70806949 58.15279360 -1.74361679 -12.26918709
474070000 -0.16824407 -4.25506901 -17.52938789 98.80221635 -23.61266849 58.27807058 -1.74920754 -12.34312113
479060000 -0.14969335 -4.34968665 -17.56496935 98.44717480 -23.54768221 58.41180129 -1.75457428 -12.34448517
484050000 -0.14177276 -4.43643030 -17.49597416 98.18061633 -23.48042504 58.59621190 -1.77205484 -12.40680492
489040000 -0.15599598 -4.52573841 -17.59750557 97.55895688 -23.41333065 57.97173966 -1.77722939 -12.50440447
494030000 -0.15716132 -4.64907741 -17.54986926 97.14739957 -23.40583250 58.37039214 -1.78910616 -12.50542596
499020000 -0.16239568 -4.72058378 -17.55578167 97.13735834 -23.32899845 58.44445044 -1.79837961 -12.52925395
504010000 -0.15585099 -4.82728992 -17.56194778 96.48656264 -23.32205110 58.69315227 -1.80821746 -12.59328428
509000000 -0.17289336 -5.03824597 -17.58778206 96.17105860 -23.19666100 58.68284879 -1.81945626 -12.73763481
513990000 -0.17615078 -5.11974004 -17.55857522 96.15204314 -23.17011325 58.35214612 -1.82058518 -12.63950380
518980000 -0.19082659 -5.04514737 -17.59800964 95.95255290 -23.08071244 58.13476423 -1.84187284 -12.77555187
523970000 -0.19035422 -5.31565931 -17.59524645 95.30909605 -23.01668956 58.12124737 -1.84330610 -12.83366040
528960000 -0.22338477 -5.36161851 -17.55822819 94.95954458 -23.03292480 58.20430098 -1.84497821 -12.87202558
533950000 -0.24893886 -5.50778075 -17.60843439 94.66439929 -22.96748179 57.82189393 -1.86813909 -12.91190388
538940000 -0.24844818 -5.51243548 -17.58402398 94.44279724 -22.90995933 57.87591966 -1.86242570 -12.92949449
543930000 -0.28488616 -5.39251331 -17.65371874 94.29082553 -22.89032704 57.91875265 -1.86927275 -13.01828364
548920000 -0.30041900 -5.21859267 -17.70264958 94.02176771 -22.85597288 58.00444488 -1.87064516 -13.14855465
553910000 -0.28329369 -5.11326513 -17.63804747 93.88054732 -22.86205023 57.86481211 -1.89495495 -13.18411988
558900000 -0.26130848 -4.98416994 -17.67549656 93.82999775 -22.75245145 58.10495204 -1.87867803 -13.21704012
563890000 -0.24283044 -4.97186180 -17.64525254 93.72529768 -22.67338908 57.95465534 -1.89118139 -13.23033139
568880000 -0.19900910 -4.89945319 -17.63092274 93.46364010 -22.56763094 58.65029030 -1.89534941 -13.27491933
573870000 -0.16997101 -4.81576114 -17.63445229 93.36229647 -22.44858441 58.64005509 -1.89972251 -13.28658682
578860000 -0.15404099 -4.97639025 -17.57903544 93.28369263 -22.47434860 58.38928969 -1.90861887 -13.35352141
583850000 -0.14088980 -5.03976824 -17.56939148 92.77895984 -22.38425230 58.56745533 -1.90925666 -13.44670883
588840000 -0.13026423 -5.28206751 -17.55374223 92.35566610 -22.33772412 58.49286691 -1.91530974 -13.42421356
593830000 -0.12711298 -5.22920268 -17.55220265 92.45222487 -22.25508223 58.93923903 -1.93476701 -13.45729998
598820000 -0.12753643 -5.44416611 -17.56360546 92.01302097 -22.20964064 58.54271656 -1.93325332 -13.57835880
603810000 -0.12974699 -5.51800904 -17.51974634 91.77700503 -22.17753520 58.26540025 -1.94394452 -13.55890173
608800000 -0.14516326 -5.67805933 -17.53259389 91.47194180 -22.15136140 58.18725385 -1.95921898 -13.62156544
613790000 -0.15024687 -5.79046029 -17.51884432 90.99436318 -22.16152021 58.36407582 -1.95985832 -13.64372248
618780000 -0.15027701 -5.84389532 -17.52610326 90.77697343 -22.05512444 58.09502073 -1.96723362 -13.76598693
623770000 -0.17572404 -6.02096981 -17.56392776 90.51937773 -21.99600666 57.99492647 -1.97057931 -13.84908620
628760000 -0.18171274 -6.21285024 -17.47628817 90.55301654 -21.98623180 57.80716507 -1.98546806 -13.94745611
633750000 -0.18211807 -6.20373569 -17.49749102 90.06155013 -21.90015137 58.07375382 -1.98001935 -13.94693897
638740000 -0.21816025 -6.29058988 -17.53540121 89.71159848 -21.87976484 57.68253167 -1.99205322 -14.03030363
643730000 -0.22739267 -6.39492334 -17.53665966 89.59681760 -21.89786849 58.03542075 -1.99262106 -14.10440815
648720000 -0.26038823 -6.44184492 -17.55700167 89.20580654 -21.76701574 57.97578135 -1.99485764 -14.12794726
653710000 -0.29435826 -6.39853346 -17.58217320 88.98965130 -21.76798916 57.91831975 -2.02002592 -14.26203922
658700000 -0.29360286 -6.23679389 -17.54185379 88.92134543 -21.77703055 58.06105486 -2.00244139 -14.25435728
663690000 -0.29306028 -6.08732605 -17.54164401 88.65446140 -21.73710794 57.99771545 -2.02360316 -14.30152235
668680000 -0.27541869 -5.88759736 -17.53766552 88.54333722 -21.67193966 57.92373342 -2.02257692 -14.42983078
673670000 -0.25309281 -5.71165305 -17.52605904 88.51449859 -21.61966351 58.12292107 -2.02231297 -14.47396664
678660000 -0.23084527 -5.71624038 -17.48570390 88.21349077 -21.54590251 58.14929963 -2.02504962 -14.51737302
683650000 -0.19068233 -5.74231066 -17.44956519 88.00843561 -21.47720927 58.37731232 -2.03091322 -14.62510772
688640000 -0.16333335 -5.76061889 -17.44941791 87.89855736 -21.40933700 58.36353052 -2.03578776 -14.57996669
693630000 -0.15848426 -5.95547993 -17.40871740 87.66197944 -21.40879914 58.41581420 -2.04948826 -14.60733779
698620000 -0.15147764 -6.01345053 -17.43409006 87.31127185 -21.29514489 57.96625301 -2.04655520 -14.69529558
703610000 -0.14029451 -6.05549095 -17.40692269 87.22513520 -21.25913595 58.23174445 -2.05605265 -14.75579241
708600000 -0.13976315 -6.23431472 -17.37703673 87.01675988 -21.22723824 58.04435863 -2.06669868 -14.83254263
713590000 -0.14336500 -6.36020829 -17.37358752 86.68341176 -21.17820955 58.15214014 -2.06232999 -14.85683796
718580000 -0.14351094 -6.57825904 -17.35628704 86.40960244 -21.17182558 57.77855640 -2.07986636 -14.95181710
723570000 -0.14536088 -6.65739543 -17.30986958 86.03430506 -21.08111427 57.80491235 -2.09566609 -14.97716612
728560000 -0.14928065 -6.79147067 -17.30739079 86.06507123 -21.07063711 57.95228100 -2.09217557 -14.97358918
733550000 -0.17399846 -6.88257569 -17.33375067 85.84019807 -21.02679283 58.16115105 -2.11231353 -15.07709752
738540000 -0.19871925 -7.07604831 -17.33907114 85.51907674 -21.01227937 57.59978015 -2.12204876 -15.18362057
743530000 -0.20931848 -7.13916973 -17.34345764 85.25505624 -20.93955914 57.67297115 -2.12020358 -15.22961725
748520000 -0.22245063 -7.26073309 -17.29301064 85.01005592 -20.92549667 57.72055598 -2.12611839 -15.25216928
753510000 -0.23809726 -7.29468079 -17.33407704 84.90858594 -20.91295171 57.76006445 -2.12248089 -15.33256779
758500000 -0.26853263 -7.35716076 -17.32709187 84.75233773 -20.90271408 57.76521872 -2.13010337 -15.45908787
763490000 -0.28739791 -7.35185575 -17.33222349 84.56435209 -20.83304238 57.66665616 -2.12514225 -15.42434843
768480000 -0.31301307 -7.23868267 -17.30124539 84.48377018 -20.86934910 57.86399471 -2.13440351 -15.50738506
773470000 -0.31263745 -7.02921746 -17.28706974 84.53572500 -20.76833836 57.68920151 -2.13678657 -15.54461241
778460000 -0.28364958 -6.82714890 -17.29344721 84.32638652 -20.70867328 57.58043146 -2.13196726 -15.63476145
783450000 -0.26103075 -6.74524371 -17.25772947 84.19106804 -20.68999952 58.05452000 -2.13739575 -15.69000929
788440000 -0.24281193 -6.69615648 -17.24251771 84.12559223 -20.60716695 57.59826816 -2.13689885 -15.70103241
793430000 -0.21198633 -6.72256859 -17.19195967 83.80394616 -20.50316526 57.72626986 -2.14071130 -15.77146265
798420000 -0.19477831 -6.80231009 -17.17505973 83.74533281 -20.50621725 57.88492602 -2.14955927 -15.79541151
803410000 -0.18058650 -6.98063313 -17.18960986 83.37357110 -20.47549623 57.79651333 -2.15290487 -15.89531895
808400000 -0.18189707 -7.02131318 -17.14418003 83.26738209 -20.40165599 57.71378731 -2.16292092 -15.91588724
813390000 -0.18393351 -7.18350417 -17.12176509 82.92093253 -20.39361118 57.70578336 -2.16794577 -15.93639378
818380000 -0.17992455 -7.24370806 -17.13303786 82.68335185 -20.34427529 57.23772987 -2.18355402 -16.05028362
823370000 -0.18949867 -7.34480080 -17.11408842 82.62889569 -20.35750119 57.51552051 -2.20732249 -16.13732036
828360000 -0.18704878 -7.43167424 -17.11339577 82.46853234 -20.24241819 57.30669639 -2.20415111 -16.16426308
833350000 -0.20262797 -7.62395706 -17.10829497 82.09776333 -20.23863634 57.37950859 -2.21335649 -16.16004710
838340000 -0.20721487 -7.78499194 -17.06783181 81.97617067 -20.23175630 57.26762402 -2.21219211 -16.25749153
843330000 -0.22525106 -7.82193568 -17.07255005 81.74606013 -20.18763026 57.35330823 -2.22852150 -16.27209998
848320000 -0.23012764 -7.92124310 -17.06998425 81.74501987 -20.15823413 57.32917199 -2.23451860 -16.41246133
853310000 -0.24865885 -8.01515944 -17.09697627 81.41942681 -20.13396098 57.08411115 -2.23391150 -16.46166984
858300000 -0.26571034 -8.18434378 -17.07245639 81.27349652 -20.07046608 57.01340526 -2.23699600 -16.50946634
863290000 -0.27057656 -8.26929243 -17.03607602 81.08969176 -20.06383255 57.00337889 -2.24446524 -16.56075912
868280000 -0.29879984 -8.24328611 -17.05142985 81.10843098 -20.02540208 56.95326056 -2.25126503 -16.67070186
873270000 -0.31979265 -8.24354887 -17.03946111 80.72999592 -20.03217019 57.10267762 -2.25366085 -16.69519847
878260000 -0.33102904 -8.14429235 -17.01640131 80.70451403 -19.99326314 57.12098556 -2.25571433 -16.78555909
883250000 -0.33909270 -7.91021578 -16.99898862 80.78365334 -19.92234259 57.45789295 -2.25405737 -16.81012767
888240000 -0.32877329 -7.71009836 -16.98605057 80.66568255 -19.88974793 57.21728602 -2.27047166 -16.84631861
893230000 -0.30217502 -7.58425504 -16.94463985 80.68227376 -19.84134333 57.47747107 -2.26222624 -16.90637461
898220000 -0.27826322 -7.53950708 -16.93572438 80.40436442 -19.84997245 57.53822766 -2.27140994 -16.89352394
903210000 -0.24822084 -7.58415056 -16.91257716 80.46684897 -19.76491899 57.54877317 -2.27477458 -16.93435855
908200000 -0.22180968 -7.72493610 -16.86631043 80.09704330 -19.69885342 57.30954728 -2.28523317 -17.00481972
913190000 -0.22112162 -7.81740148 -16.85945852 79.81265415 -19.63838128 57.00313159 -2.28825562 -17.01918904
918180000 -0.20652669 -7.92700640 -16.81681271 79.82506725 -19.62838705 57.03599484 -2.28682912 -17.13620915
923170000 -0.22019226 -8.03073967 -16.83788089 79.44187824 -19.61206249 57.32214729 -2.30134608 -17.07984689
928160000 -0.22868754 -8.10664343 -16.79605270 79.14579463 -19.57758421 56.91102686 -2.30672163 -17.18626890
933150000 -0.22201412 -8.28567193 -16.77750214 79.08180386 -19.56184366 56.90941343 -2.31841885 -17.28731790
938140000 -0.24235106 -8.36571259 -16.79309101 78.98808443 -19.50259810 57.02031387 -2.31972475 -17.38123958
943130000 -0.25693156 -8.39177939 -16.77576538 78.84894776 -19.49334880 56.54487674 -2.32957561 -17.40426002
948120000 -0.26466487 -8.55281074 -16.75894953 78.46592042 -19.48587160 56.57100504 -2.34272922 -17.48700053
953110000 -0.27898008 -8.64747909 -16.76565540 78.32787852 -19.44412839 56.62468469 -2.34919576 -17.56561152
958100000 -0.29356799 -8.77139351 -16.76365833 78.16077166 -19.41061037 56.67167306 -2.34948905 -17.63157156
963090000 -0.29898662 -8.86741111 -16.73809743 78.09440145 -19.36991028 56.47905906 -2.35457176 -17.71350473
968080000 -0.30603983 -8.92787588 -16.72405964 77.92404525 -19.34005665 56.84646584 -2.35178710 -17.73085455
973070000 -0.33373130 -8.98289270 -16.75358347 77.70460424 -19.33293471 56.61837855 -2.35527563 -17.86309957
978060000 -0.34892884 -9.10642014 -16.71662251 77.56346455 -19.32254247 56.59178732 -2.36681436 -17.88433737
983050000 -0.36711919 -9.03307703 -16.72142445 77.57203773 -19.28553189 56.53906745 -2.36230884 -17.95478409
988040000 -0.37995424 -8.94084065 -16.70025652 77.43636035 -19.22049986 56.75042980 -2.36171285 -18.06603985
993030000 -0.38993277 -8.78579976 -16.69729583 77.47189659 -19.22025070 56.69599084 -2.36587032 -18.06431571
998020000 -0.38108941 -8.58959044 -16.68521336 77.46748037 -19.21455815 56.93852641 -2.37388423 -18.11606099
1003010000 -0.35927941 -8.46696984 -16.64382202 77.50785344 -19.15833380 56.90013333 -2.37668109 -18.16583573
1008000000 -0.33775274 -8.35935964 -16.62123455 77.32955733 -19.08308027 56.66781773 -2.39132736 -18.16221859
1012990000 -0.31105815 -8.30536321 -16.60891372 77.13620400 -19.06989307 56.77217799 -2.39179718 -18.25939892
1017980000 -0.28820313 -8.48518076 -16.54268459 76.91592504 -19.02294448 56.63821167 -2.40570872 -18.30883331
1022970000 -0.27948037 -8.62713065 -16.53669742 76.66932016 -18.94056470 56.61507696 -2.40318247 -18.34331252
1027960000 -0.28033552 -8.69370756 -16.51439199 76.51651883 -18.90007238 56.37149101 -2.40720381 -18.42394871
1032950000 -0.27875341 -8.80443200 -16.51758885 76.32629376 -18.92085112 56.43663916 -2.41826989 -18.43623196
1037940000 -0.29878055 -8.93495796 -16.52047314 76.27875698 -18.88708323 56.43402275 -2.42529412 -18.49836134
1042930000 -0.31196678 -9.03053290 -16.48812231 76.01902393 -18.87771310 56.23560620 -2.43427578 -18.56916000
1047920000 -0.31759779 -9.11350527 -16.49559937 75.85689670 -18.81762626 56.01836634 -2.44392420 -18.58993076
1052910000 -0.32805129 -9.26490124 -16.49493176 75.79387731 -18.84675360 56.17650054 -2.46118110 -18.73310022
1057900000 -0.33824613 -9.32112031 -16.48016771 75.85137476 -18.80990220 56.05057614 -2.45650065 -18.71310143
1062890000 -0.35940766 -9.43947819 -16.45428898 75.36763237 -18.76629428 55.97522596 -2.45880087 -18.77933364
1067880000 -0.35267506 -9.46449028 -16.43445491 75.12502396 -18.75166803 56.00848196 -2.46544833 -18.84750549
1072870000 -0.37287124 -9.61037075 -16.43972427 75.17313443 -18.73188383 56.09855377 -2.47538840 -18.90361923
1077860000 -0.38238243 -9.69390399 -16.46122160 75.15657762 -18.71656698 56.02185105 -2.47378570 -18.95212149
1082850000 -0.39246679 -9.77468500 -16.41069313 75.03576083 -18.72274076 56.04497966 -2.48488626 -19.03085432
1087840000 -0.40035977 -9.79611342 -16.37602252 75.04242797 -18.66443432 56.17507554 -2.46668657 -19.09982943
1092830000 -0.41694546 -9.82143946 -16.40227662 74.83048611 -18.61157678 56.17121613 -2.46690665 -19.13881245
1097820000 -0.42371574 -9.73602185 -16.34954006 74.88813242 -18.58715283 55.98355830 -2.47620401 -19.24669639
1102810000 -0.43478374 -9.64453543 -16.37263105 74.60645846 -18.58854252 56.07632294 -2.48166558 -19.28507671
1107800000 -0.43030671 -9.53315282 -16.32364409 74.71110886 -18.53700004 56.09068269 -2.47697230 -19.27476019
1112790000 -0.41196614 -9.41140817 -16.32126636 74.55035730 -18.49351604 56.28197659 -2.48660399 -19.33341357
1117780000 -0.40684118 -9.34781845 -16.30049166 74.39654891 -18.45630104 56.20444975 -2.49292280 -19.38736884
1122770000 -0.37822838 -9.27597062 -16.23065625 74.30362947 -18.41242595 55.94549963 -2.49466904 -19.45798159
1127760000 -0.37368069 -9.39582616 -16.24516561 74.18258342 -18.39853053 55.96457455 -2.50219883 -19.45154333
1132750000 -0.37437837 -9.47176302 -16.21390990 74.03639790 -18.37765096 55.95688127 -2.51937925 -19.52941673
1137740000 -0.37282019 -9.55265857 -16.22203257 73.82929484 -18.33884346 55.90920496 -2.53041655 -19.58007331
1142730000 -0.37277979 -9.66369126 -16.20858110 73.66689808 -18.32331530 55.48703284 -2.52883944 -19.63968368
1147720000 -0.39083301 -9.67937713 -16.19427253 73.66282706 -18.28433531 55.76035129 -2.54021956 -19.72506729
1152710000 -0.39292238 -9.75778644 -16.17459452 73.34181794 -18.27368461 55.70760277 -2.55570831 -19.68928474
1157700000 -0.38621960 -9.88855526 -16.14745241 73.41533401 -18.26892414 55.35659141 -2.57102760 -19.83929991
1162690000 -0.40082682 -9.93329276 -16.15570252 73.00499840 -18.21676673 55.63335969 -2.57801294 -19.89994010
1167680000 -0.41759452 -10.03646519 -16.13148625 73.14973792 -18.21892033 55.49360993 -2.57153348 -19.97189873
1172670000 -0.42445460 -10.17338356 -16.12016571 72.92026489 -18.18398663 55.43200732 -2.58113498 -20.04103941
1177660000 -0.43582713 -10.16468686 -16.11367772 72.92673384 -18.18474895 55.51474821 -2.58238241 -20.12191642
1182650000 -0.43349540 -10.24433344 -16.12277311 72.73463679 -18.15855958 55.59531285 -2.58942959 -20.18823960
1187640000 -0.44569248 -10.38185076 -16.08962197 72.68084776 -18.12568246 55.33343093 -2.59506526 -20.20706923
1192630000 -0.44763301 -10.37472021 -16.06998389 72.61313476 -18.10313874 55.40684715 -2.59132823 -20.26728150
1197620000 -0.45614033 -10.44194527 -16.06386909 72.49070168 -18.06392195 55.39559762 -2.60199050 -20.35829444
1202610000 -0.46763827 -10.40124383 -16.06290236 72.38082524 -18.03776127 55.42389034 -2.59415759 -20.36437853
1207600000 -0.47943351 -10.39801542 -16.05252980 72.31665174 -18.03201539 55.38660942 -2.61274197 -20.45920922
1212590000 -0.47349197 -10.38642351 -16.02151510 72.24511512 -18.00357856 55.50064666 -2.60367971 -20.43176198
1217580000 -0.48157220 -10.28025758 -16.03719925 72.20315695 -18.00140068 55.45666046 -2.62223286 -20.52086295
1222570000 -0.48687027 -10.19800394 -16.00741533 72.07160100 -17.92131674 55.48265002 -2.61538078 -20.56608750
1227560000 -0.47646182 -10.12955794 -15.95822070 72.10215087 -17.91096923 55.57695418 -2.61994453 -20.58371768
1232550000 -0.45181392 -10.11037558 -15.93592776 71.93722148 -17.87182856 55.40690866 -2.62684496 -20.61007097
1237540000 -0.44626592 -10.20714926 -15.91546158 71.58600867 -17.81405233 55.35831982 -2.62589881 -20.69579076
1242530000 -0.45148800 -10.27192301 -15.89845913 71.61724096 -17.84529001 55.17097645 -2.65054391 -20.72695052
1247520000 -0.45452090 -10.25077911 -15.87853946 71.51064089 -17.79610647 55.15802073 -2.64645220 -20.80507810
1252510000 -0.45417139 -10.36392192 -15.89123157 71.33347756 -17.77049801 55.12442275 -2.65648471 -20.81079988
1257500000 -0.46824452 -10.43059862 -15.87073687 71.25191770 -17.75665831 55.01191345 -2.66468573 -20.86098898
1262490000 -0.47221194 -10.49660528 -15.87698538 71.17774879 -17.73292147 55.01413064 -2.66847739 -21.00767526
1267480000 -0.48873430 -10.60499915 -15.84692539 71.09875318 -17.71659618 54.97370037 -2.68187668 -21.00262286
1272470000 -0.49272862 -10.67218976 -15.83810544 70.90144935 -17.71453843 55.06540282 -2.67827259 -21.06336491
1277460000 -0.49981624 -10.79715830 -15.81029292 70.85900460 -17.69626755 54.99497373 -2.68324737 -21.14837782
1282450000 -0.50814050 -10.76237729 -15.82185727 70.79204488 -17.65422372 54.91060221 -2.70568567 -21.26745153
1287440000 -0.50859304 -10.88756404 -15.82522260 70.60419188 -17.65396292 54.80749598 -2.70289790 -21.28693108
1292430000 -0.51898640 -10.93427062 -15.79163044 70.52091234 -17.65026856 54.74355751 -2.70348738 -21.36807184
1297420000 -0.51543130 -10.97815671 -15.78320366 70.62218772 -17.61515313 55.15118682 -2.69848083 -21.42386879
1302410000 -0.51465446 -10.97041428 -15.76126690 70.53846262 -17.55922043 54.95734304 -2.70706059 -21.47862607
1307400000 -0.52035188 -11.08346730 -15.77523061 70.31810874 -17.55607953 54.86620818 -2.70649850 -21.53058501
1312390000 -0.53003152 -11.07034902 -15.75066924 70.24570521 -17.55471152 54.92527569 -2.71815857 -21.63151536
1317380000 -0.53161000 -11.01551240 -15.73414331 70.41962124 -17.50503189 54.72368238 -2.72099903 -21.66305261
1322370000 -0.53693372 -11.05164434 -15.71084342 70.09820563 -17.48350858 54.84317737 -2.71878246 -21.62823895
1327360000 -0.53748134 -10.99514551 -15.69852721 70.07548746 -17.46159302 54.90550984 -2.73185632 -21.71725137
1332350000 -0.53267506 -10.82617477 -15.65751304 70.16278779 -17.43744293 54.87686415 -2.73337984 -21.74435179
1337340000 -0.52164978 -10.90524840 -15.64013948 69.99725333 -17.38922623 54.69253435 -2.74935034 -21.82940878
1342330000 -0.51751260 -10.90552124 -15.61352056 69.89829170 -17.39198780 54.69315385 -2.74832814 -21.79923417
1347320000 -0.52234793 -10.93592640 -15.61589085 69.56691919 -17.34639194 54.67052989 -2.75263676 -21.92752582
1352310000 -0.52810762 -11.01212068 -15.58802297 69.53304103 -17.34689606 54.59089386 -2.76093372 -21.93945658
1357300000 -0.53120950 -11.05614414 -15.58369916 69.38659811 -17.31875968 54.25036441 -2.77366111 -21.97892561
1362290000 -0.53605451 -11.10192592 -15.57832508 69.41606331 -17.28134766 54.47540008 -2.77296277 -22.00022053
1367280000 -0.54349434 -11.17545523 -15.56498499 69.20113982 -17.26646824 54.53719375 -2.78355608 -22.02114346
1372270000 -0.55615701 -11.23364593 -15.53610370 69.11384624 -17.24075280 54.34484432 -2.79960617 -22.16293144
1377260000 -0.56773842 -11.27780114 -15.56123003 69.02037811 -17.28199477 54.44915730 -2.80534922 -22.16586867
1382250000 -0.56845726 -11.33947904 -15.53701382 69.19886610 -17.21376511 54.53282737 -2.80133357 -22.20862681
1387240000 -0.58294645 -11.44347651 -15.53716952 68.86803030 -17.18988559 54.42834385 -2.81199093 -22.23600849
1392230000 -0.57488882 -11.48991214 -15.50088542 68.72473018 -17.19700622 54.39213558 -2.80883207 -22.33015157
1397220000 -0.57622136 -11.56819214 -15.49144767 68.73193696 -17.16177065 54.40715970 -2.81222068 -22.30073154
1402210000 -0.57252221 -11.62685939 -15.46840502 68.60925240 -17.12952487 54.36887582 -2.81979996 -22.45140540
1407200000 -0.57864339 -11.69356533 -15.46512596 68.60081688 -17.12026011 54.33909204 -2.82247490 -22.49061865
1412190000 -0.56929122 -11.71717365 -15.45307734 68.66290765 -17.08161770 54.51483318 -2.81719065 -22.53238640
1417180000 -0.57345402 -11.76864588 -15.44600510 68.38157100 -17.05417537 54.12671073 -2.82427621 -22.63452094
1422170000 -0.58132747 -11.76091436 -15.43586743 68.47605088 -17.02220203 54.32205330 -2.82011800 -22.63400204
1427160000 -0.58736824 -11.76264740 -15.40309936 68.39545708 -17.03112640 54.23031628 -2.82998653 -22.74624122
1432150000 -0.58438003 -11.77570308 -15.39127167 68.36838339 -17.02326323 54.17656106 -2.83077026 -22.68429652
1437140000 -0.58369587 -11.77162797 -15.37634789 68.15198539 -16.98485828 54.09892600 -2.83300182 -22.77329857
1442130000 -0.58308490 -11.66832583 -15.37288574 68.05570351 -16.96101155 54.11714686 -2.85112198 -22.81655465
1447120000 -0.58829836 -11.75953608 -15.34019509 67.84915420 -16.91965346 53.98807226 -2.86418642 -22.87842223
1452110000 -0.59275514 -11.67741444 -15.34186234 67.94517539 -16.92772371 53.97159803 -2.86307802 -22.92108090
1457100000 -0.58266122 -11.75538279 -15.30070026 67.72730469 -16.88080818 54.04990973 -2.88566799 -23.00694625
1462090000 -0.59559457 -11.77915183 -15.30126908 67.76533183 -16.86175520 54.11102862 -2.88358733 -23.03979311
1467080000 -0.59140946 -11.80120751 -15.27398509 67.53819858 -16.80669846 54.00304776 -2.88352555 -23.07025026
1472070000 -0.59940619 -11.87492473 -15.25989469 67.49644101 -16.83218778 53.89368566 -2.90047460 -23.15248524
1477060000 -0.60893272 -11.95766809 -15.25036212 67.45651107 -16.80465560 53.80869687 -2.90695636 -23.24177588
1482050000 -0.62275075 -11.97609639 -15.23227684 67.33434203 -16.78162010 53.80799243 -2.91640055 -23.22901968
1487040000 -0.63718440 -12.01414637 -15.23046520 67.27818214 -16.80760237 53.87321370 -2.92328902 -23.29269481
1492030000 -0.62664321 -12.04141163 -15.23545688 67.42071347 -16.76146370 53.71078511 -2.93644562 -23.40207811
1497020000 -0.63634463 -12.09632482 -15.20718772 67.17747359 -16.75089833 53.87093988 -2.93412027 -23.49978342
1502010000 -0.63005564 -12.14542692 -15.21636891 67.13570879 -16.74585784 53.90653587 -2.93988298 -23.54692953
1507000000 -0.62645247 -12.20229253 -15.18325511 67.07173630 -16.69836235 53.77065547 -2.94175087 -23.57878517
1511990000 -0.62326816 -12.24348557 -15.19838156 67.02945583 -16.68016117 53.75248652 -2.94359477 -23.55689188
1516980000 -0.61438679 -12.29087377 -15.16044054 66.86619894 -16.64832478 53.71067569 -2.94496720 -23.64321715
1521970000 -0.60645552 -12.39494388 -15.11975059 66.82114931 -16.65897784 53.66281038 -2.95656121 -23.68842228
1526960000 -0.59262431 -12.40017235 -15.13204430 66.74975438 -16.60505726 53.79641732 -2.94410575 -23.78108885
1531950000 -0.60559473 -12.44530629 -15.11093424 66.77512874 -16.60681121 53.59934707 -2.95616814 -23.79324307
1536940000 -0.61201539 -12.52519153 -15.09647761 66.59044072 -16.59159165 53.59172996 -2.96329689 -23.84825399
1541930000 -0.61062493 -12.50556082 -15.06192092 66.53617898 -16.55812983 53.47322615 -2.96495335 -23.79126696
1546920000 -0.60647359 -12.50751129 -15.02790152 66.46583463 -16.53364814 53.41684032 -2.97127920 -23.92745315
1551910000 -0.62203865 -12.49717227 -15.02062355 66.19865394 -16.49173459 53.25660137 -2.97907176 -23.94815851
1556900000 -0.62181317 -12.51792833 -15.01334742 66.13127259 -16.46042047 53.46890489 -2.98907923 -24.09054154
1561890000 -0.63360361 -12.53934588 -15.00199739 66.03033816 -16.47866530 53.44310958 -2.98650218 -24.03240738
1566880000 -0.63872208 -12.50044813 -15.01329542 66.03453016 -16.43216772 53.34151522 -3.00628906 -24.06962547
1571870000 -0.63575317 -12.62187552 -14.97776224 65.80782862 -16.43400568 53.31288505 -3.00938023 -24.16109415
1576860000 -0.64970906 -12.57368089 -14.96231995 65.84269517 -16.40823943 53.36347428 -3.01692821 -24.15272125
1581850000 -0.66318888 -12.65649745 -14.98967869 65.78609787 -16.42587622 53.23742678 -3.02487310 -24.23813489
1586840000 -0.65903439 -12.65432869 -14.94144238 65.75188337 -16.38715306 53.25944964 -3.02894929 -24.32246673
1591830000 -0.67289914 -12.71325508 -14.96856982 65.50690718 -16.36968136 53.29622035 -3.03069772 -24.31376413
1596820000 -0.66986368 -12.77818131 -14.92501698 65.61974893 -16.36703083 53.26522718 -3.04077578 -24.36841129
1601810000 -0.66762003 -12.81782902 -14.92958803 65.55493791 -16.33182512 53.17812275 -3.04597448 -24.49564595
1606800000 -0.68197975 -12.86991919 -14.89511048 65.46584840 -16.31778100 53.22999188 -3.04624991 -24.45103025
1611790000 -0.67653588 -12.98057921 -14.91526750 65.30767419 -16.29887471 53.22467596 -3.05611514 -24.58051312
1616780000 -0.66576657 -13.02596144 -14.86404336 65.30954560 -16.27699809 53.09174368 -3.04829418 -24.58500075
1621770000 -0.66463336 -13.05004936 -14.84354189 65.15616340 -16.23879194 53.03266514 -3.04839668 -24.69828026
1626760000 -0.65786719 -13.07206556 -14.82403367 65.33309366 -16.24225596 52.96347468 -3.06478544 -24.75272885
1631750000 -0.65351020 -13.14974445 -14.80995014 65.10179365 -16.21081493 52.94813979 -3.06359869 -24.77589430
1636740000 -0.65328803 -13.17678119 -14.82518474 65.01845426 -16.19889244 53.01839512 -3.05729526 -24.78099327
1641730000 -0.63116611 -13.22273165 -14.80315305 64.83943505 -16.17041479 53.04326611 -3.07669221 -24.80846049
1646720000 -0.64875029 -13.25581606 -14.78769281 64.87699477 -16.13952158 52.93295609 -3.08636160 -24.83974837
1651710000 -0.64281436 -13.29909579 -14.76468526 64.73618972 -16.13194457 52.93676138 -3.08795739 -24.89029775
1656700000 -0.64651365 -13.26234776 -14.74616922 64.73312553 -16.10302166 52.90695186 -3.09202760 -24.93734976
1661690000 -0.64731498 -13.31497596 -14.72769047 64.50967835 -16.08849890 52.80982019 -3.10080457 -25.04206606
1666680000 -0.65702032 -13.29620254 -14.72447815 64.51248316 -16.07181017 52.66749814 -3.09854757 -24.97975445
1671670000 -0.65120634 -13.30504366 -14.71499684 64.44744453 -16.06127309 52.65433484 -3.11685389 -25.03950772
1676660000 -0.67059896 -13.36939696 -14.72320929 64.42522565 -16.06166174 52.60876521 -3.12467225 -25.04303910
1681650000 -0.66994581 -13.34934677 -14.71347241 64.31526840 -16.03007425 52.57692427 -3.14287513 -25.12819671
1686640000 -0.67779451 -13.43089521 -14.68917945 64.23138321 -16.01409131 52.75070667 -3.13716827 -25.22325662
1691630000 -0.68903881 -13.49667151 -14.69250406 64.15499647 -15.99573804 52.61468329 -3.15487086 -25.26320768
1696620000 -0.69112407 -13.49596805 -14.67256959 64.07082670 -16.00395898 52.55459007 -3.15531543 -25.28163334
1701610000 -0.69377596 -13.54296716 -14.65498628 64.09873277 -15.99532084 52.70638842 -3.16365833 -25.38112002
1706600000 -0.69255942 -13.59482259 -14.63078534 64.06891203 -15.96103548 52.54746453 -3.15932719 -25.43781835
1711590000 -0.70292802 -13.56914527 -14.63852505 63.86803700 -15.93219530 52.43384319 -3.17616442 -25.50828617
1716580000 -0.69341772 -13.68539864 -14.61285146 63.95902506 -15.93223820 52.42461817 -3.17577647 -25.45732855
1721570000 -0.69218784 -13.71489658 -14.61400469 63.84870289 -15.92350840 52.57391033 -3.17793703 -25.57768309
1726560000 -0.69071355 -13.82884925 -14.60223155 63.74544629 -15.87029556 52.55705427 -3.19076376 -25.50431602
1731550000 -0.66855595 -13.88222044 -14.58030640 63.76868919 -15.85428213 52.36053975 -3.18195767 -25.56252120
1736540000 -0.68096347 -13.96334733 -14.54347254 63.58024409 -15.84266378 52.59839672 -3.18270714 -25.61494605
1741530000 -0.66901333 -13.97077437 -14.53856564 63.55721220 -15.82596281 52.35392813 -3.18117024 -25.68884121
1746520000 -0.66694538 -13.99632517 -14.50669628 63.41485619 -15.80462106 52.36128728 -3.18608452 -25.72612455
1751510000 -0.66075674 -13.99101401 -14.50733171 63.32847646 -15.77777408 52.25038168 -3.19461461 -25.79683056
1756500000 -0.66166432 -14.02934458 -14.45333624 63.35949943 -15.73422798 52.33477673 -3.19494686 -25.82546412
1761490000 -0.66370817 -14.05693084 -14.47582273 63.31749938 -15.76674727 52.22969882 -3.21258832 -25.85958703
1766480000 -0.66502220 -14.09882083 -14.47410885 63.22452220 -15.72907350 51.94011390 -3.22551652 -25.90237119
1771470000 -0.67221062 -14.15238987 -14.47448411 62.93764592 -15.75835169 51.99181209 -3.23585020 -25.99860484
1776460000 -0.67395942 -14.20443315 -14.45069221 62.95455048 -15.71281581 52.09384649 -3.23346510 -25.96730353
1781450000 -0.69095031 -14.20127921 -14.45054172 62.81603589 -15.69614502 51.89750395 -3.25125207 -26.04260685
1786440000 -0.69615266 -14.23195526 -14.43619488 62.86418676 -15.67714345 51.80590272 -3.25054455 -26.09600410
1791430000 -0.69926974 -14.30094113 -14.40623142 62.76922002 -15.63236800 51.77602523 -3.26119026 -26.08530579
1796420000 -0.71070972 -14.31018999 -14.40464295 62.61015384 -15.64370788 51.85446392 -3.26919722 -26.27659334
1801410000 -0.70992879 -14.37884882 -14.40007666 62.53408259 -15.62277362 51.76565858 -3.27096683 -26.27786866
1806400000 -0.72840894 -14.36360886 -14.41426527 62.49231267 -15.63988578 51.76605450 -3.27515659 -26.31473255
1811390000 -0.72224858 -14.39697113 -14.37310521 62.59586501 -15.62432794 51.80100931 -3.28463956 -26.31981623
1816380000 -0.72284769 -14.50678990 -14.36836033 62.52024958 -15.59246978 51.73750887 -3.27781163 -26.38311539
1821370000 -0.72027544 -14.55508986 -14.36338311 62.34980136 -15.56055962 51.75371509 -3.29019864 -26.45822968
1826360000 -0.71682929 -14.51330142 -14.34563053 62.54068237 -15.54369580 51.84426645 -3.29352733 -26.42777235
1831350000 -0.71189106 -14.62772071 -14.32313425 62.28194575 -15.53558891 51.68069882 -3.29721260 -26.61934396
1836340000 -0.70764119 -14.63390019 -14.30072507 62.38720179 -15.49289350 51.73228382 -3.29620977 -26.55395198
1841330000 -0.70432100 -14.73124390 -14.29668740 62.04971423 -15.47831079 51.64601710 -3.29773492 -26.63202458
1846320000 -0.68546222 -14.78667133 -14.25765187 61.95914967 -15.48014082 51.56902987 -3.29831445 -26.66254858
1851310000 -0.68406336 -14.83417163 -14.23332686 61.93424459 -15.45753868 51.70164830 -3.30262870 -26.69889112
1856300000 -0.67496762 -14.90034834 -14.23295025 61.80919306 -15.42671848 51.44971244 -3.31048530 -26.66624871
1861290000 -0.68453560 -14.89998065 -14.24424027 61.77296830 -15.43795571 51.50956974 -3.31251023 -26.76645097
1866280000 -0.67953612 -14.93132524 -14.22315796 61.75757253 -15.42730752 51.38819685 -3.32952415 -26.72044062
1871270000 -0.68180017 -15.01809168 -14.18348238 61.60702454 -15.37512781 51.22906454 -3.32753116 -26.75670102
1876260000 -0.69342406 -15.01336114 -14.19421973 61.41493141 -15.39967712 51.10573889 -3.34224526 -26.81429217
1881250000 -0.68589053 -15.04320473 -14.17790951 61.64143372 -15.36863856 51.20293492 -3.34388247 -26.87275040
1886240000 -0.69705774 -15.09887032 -14.18120772 61.43521108 -15.36484724 51.07935438 -3.36262971 -26.90532775
1891230000 -0.70673213 -15.04821331 -14.17487102 61.23425952 -15.33825041 51.02626707 -3.36151615 -26.96649502
1896220000 -0.71680043 -15.09542548 -14.14304232 61.26232573 -15.34649876 51.22396624 -3.37621479 -26.99855418
1901210000 -0.72435360 -15.12988625 -14.16227756 61.22846537 -15.31623836 51.10414129 -3.38617692 -27.11356181
1906200000 -0.71941539 -15.17883509 -14.10953877 61.13513261 -15.31960424 51.12447760 -3.39911112 -27.16396598
1911190000 -0.72603991 -15.16330408 -14.11732974 61.26882736 -15.29466664 51.10056028 -3.39986804 -27.19314511
1916180000 -0.73926423 -15.22175891 -14.12519869 61.09798934 -15.29312571 51.10631529 -3.39713137 -27.24192671
1921170000 -0.73144617 -15.33082674 -14.11432207 60.87428713 -15.25470344 51.02081259 -3.39626395 -27.29529528
1926160000 -0.73581115 -15.34847575 -14.08115145 60.97262965 -15.22797403 51.03800048 -3.40783861 -27.29693891
1931150000 -0.73534874 -15.44194237 -14.09000792 61.04785801 -15.22103213 50.92082645 -3.40257995 -27.35449617
1936140000 -0.72710034 -15.55473559 -14.04252787 60.85230615 -15.22323248 51.00975546 -3.41300595 -27.45936565
1941130000 -0.73621586 -15.46729471 -14.08762676 60.77492290 -15.19934239 50.89680336 -3.41782220 -27.45794718
1946120000 -0.71470637 -15.59713330 -14.04301117 60.75321839 -15.19887789 51.01776056 -3.41705015 -27.42294145
1951110000 -0.71020028 -15.61003436 -14.01037063 60.74430472 -15.17187685 50.88919052 -3.41676529 -27.52130556
1956100000 -0.69337076 -15.63689831 -13.99535613 60.62059757 -15.13544621 50.90289992 -3.42185187 -27.55412887
1961090000 -0.70489015 -15.70833092 -14.00881551 60.42259383 -15.12941837 50.73613979 -3.43273118 -27.58032852
1966080000 -0.69928547 -15.79592238 -13.99294722 60.34418111 -15.11303891 50.58620917 -3.41930180 -27.55290023
1971070000 -0.69506631 -15.80724822 -13.96254557 60.20505229 -15.08310743 50.46161062 -3.42772160 -27.70760570
1976060000 -0.69301368 -15.89517279 -13.96441540 60.12261519 -15.06598555 50.32456999 -3.43580656 -27.70211038
1981050000 -0.70248133 -15.83351236 -13.97040267 60.09674085 -15.07543340 50.51859045 -3.46470371 -27.69654912
1986040000 -0.68595391 -15.79424256 -13.96468768 59.98883278 -15.01695002 50.60999771 -3.46056773 -27.75356921
1991030000 -0.69610670 -15.92814481 -13.93171950 59.94340632 -15.07902719 50.57180777 -3.46667868 -27.79345857
1996020000 -0.72029495 -15.98849653 -13.95534351 59.83725740 -15.06382497 50.42920320 -3.47981652 -27.82269582
2001010000 -0.72910725 -15.98515837 -13.92507614 59.63304404 -15.02862529 50.21122393 -3.48248893 -27.87172949
2006000000 -0.72073515 -16.01657838 -13.92298648 59.66991948 -15.01881608 50.26262434 -3.49595035 -27.91345960
2010990000 -0.72587192 -16.01477739 -13.90389036 59.77414784 -15.01040527 50.50294876 -3.49603867 -27.97662554
2015980000 -0.73909529 -16.05946663 -13.92017134 59.64729530 -15.04543990 50.18678588 -3.51085650 -28.03273750
2020970000 -0.74043594 -16.13921799 -13.89735888 59.68557965 -14.99975692 50.28270396 -3.51208691 -28.11293438
2025960000 -0.73945973 -16.13222649 -13.87353746 59.42917416 -14.96378518 50.24245960 -3.51747450 -28.18860973
2030950000 -0.75231141 -16.20452170 -13.88526273 59.47958247 -14.95121451 50.19991325 -3.53344416 -28.11095720
2035940000 -0.73305002 -16.25171301 -13.84471485 59.61375834 -14.95063011 50.22969739 -3.52920877 -28.22954366
2040930000 -0.72533495 -16.29003961 -13.84345411 59.46448809 -14.91891887 50.23417909 -3.53136880 -28.23127363
2045920000 -0.73503365 -16.40598251 -13.82068821 59.46004627 -14.91797070 49.92361555 -3.53621349 -28.33475195
2050910000 -0.72355867 -16.52587593 -13.79695166 59.32731084 -14.91615764 49.98871459 -3.54485324 -28.29321872
2055900000 -0.72099285 -16.45552075 -13.79508716 59.20492222 -14.88511357 50.21798700 -3.54240303 -28.38803424
2060890000 -0.71367226 -16.58202249 -13.77979090 59.06920728 -14.85384068 50.11198576 -3.54449279 -28.39393644
2065880000 -0.70367518 -16.61470957 -13.75623174 58.93683614 -14.84460531 49.86869960 -3.53600977 -28.39023904
2070870000 -0.70727357 -16.68040144 -13.77188650 58.84323311 -14.82660140 49.89606806 -3.55470675 -28.41259095
2075860000 -0.69911129 -16.70960189 -13.75971145 58.79804585 -14.81513911 49.70288014 -3.56041084 -28.52555207
2080850000 -0.70056515 -16.72611198 -13.73379701 58.71801075 -14.79753354 49.93891373 -3.57096790 -28.46641928
2085840000 -0.70746273 -16.77183070 -13.74249596 58.76101416 -14.81613280 49.65115395 -3.56327522 -28.50135690
2090830000 -0.70354930 -16.79221264 -13.72037926 58.56703938 -14.77482566 49.63444021 -3.57413496 -28.54040392
2095820000 -0.71910750 -16.72369444 -13.70661836 58.67717165 -14.76097103 49.50302464 -3.57944979 -28.59039674
2100810000 -0.72344981 -16.74364775 -13.70496327 58.43217465 -14.75976033 49.56932257 -3.58757485 -28.65599736
2105800000 -0.73947919 -16.80047433 -13.73437630 58.34697369 -14.75302668 49.56622583 -3.60747301 -28.68265947
2110790000 -0.74749405 -16.78992509 -13.68483898 58.36080416 -14.75600150 49.55188250 -3.61040079 -28.70538571
2115780000 -0.76040830 -16.85449727 -13.71150289 58.25851296 -14.73846995 49.52498108 -3.61389659 -28.76864410
2120770000 -0.75745475 -16.88051187 -13.69442362 58.30863760 -14.69700823 49.63747709 -3.60285387 -28.88320225
2125760000 -0.75272443 -16.95559070 -13.66212122 58.25880204 -14.69583371 49.57788263 -3.63045786 -28.92046395
2130750000 -0.76328052 -16.97324483 -13.65316831 58.17839565 -14.68781734 49.46198838 -3.62604649 -28.97749996
2135740000 -0.76139638 -17.02933065 -13.64427881 58.25377693 -14.67300132 49.37008937 -3.64501141 -28.96901076
2140730000 -0.76969719 -17.09743385 -13.63572665 58.16155867 -14.67755894 49.42592573 -3.64235166 -29.05909521
2145720000 -0.75826456 -17.12598216 -13.60979626 58.06995885 -14.65797261 49.35989730 -3.63423279 -29.10603791
2150710000 -0.74930477 -17.23809427 -13.61053984 58.04148361 -14.64292629 49.42051045 -3.63887490 -29.04312139
2155700000 -0.74165202 -17.21379637 -13.58611114 58.10985403 -14.62686217 49.27654785 -3.64201465 -29.10551717
2160690000 -0.74136653 -17.31711169 -13.59603840 57.81153957 -14.60454760 49.38717871 -3.65002468 -29.15609340
2165680000 -0.73037805 -17.43184829 -13.55444856 57.73796521 -14.58704407 49.21644654 -3.64909350 -29.21543628
2170670000 -0.73931072 -17.47238515 -13.58695171 57.65290756 -14.59148925 49.23837954 -3.65605339 -29.14242263
2175660000 -0.71427735 -17.46396275 -13.52944727 57.60513988 -14.58671610 49.24614158 -3.66983681 -29.18334292
2180650000 -0.73208789 -17.44089159 -13.54020790 57.44678565 -14.55225785 49.11269180 -3.66450149 -29.30444905
2185640000 -0.71740490 -17.57636483 -13.51521739 57.39949411 -14.56213475 48.93252088 -3.66871548 -29.27636221
2190630000 -0.72341527 -17.54075119 -13.52195004 57.16836066 -14.52879713 48.95987378 -3.68715375 -29.31218795
2195620000 -0.72503307 -17.59423772 -13.51112367 57.34738737 -14.52192293 48.97496382 -3.70652612 -29.38099874
2200610000 -0.74052602 -17.58165815 -13.51947718 57.15459444 -14.53836796 48.96154158 -3.69587131 -29.35538959
2205600000 -0.74536481 -17.65854285 -13.49861585 57.26067594 -14.50955030 48.72802158 -3.70841313 -29.45068141
2210590000 -0.74730945 -17.61767230 -13.51358419 57.06823294 -14.49767902 48.74192538 -3.71246261 -29.50869137
2215580000 -0.76824786 -17.65443149 -13.50526136 57.11898092 -14.49716645 48.66727801 -3.71862720 -29.42824357
2220570000 -0.77860099 -17.66087893 -13.49223468 57.04453914 -14.49727594 48.95586998 -3.72273913 -29.55548487
2225560000 -0.77153363 -17.70390812 -13.48173731 56.88599719 -14.46892138 48.61322382 -3.73902965 -29.61832312
2230550000 -0.78383708 -17.72639870 -13.47550266 57.03231835 -14.44671371 48.60915152 -3.74241972 -29.68816236
2235540000 -0.78395302 -17.80323387 -13.47293259 56.97738427 -14.45025233 48.74588103 -3.75674364 -29.68912342
2240530000 -0.78665125 -17.76300751 -13.48694814 56.98941187 -14.45189119 48.73123470 -3.75259853 -29.76936085
2245520000 -0.78499536 -17.89922060 -13.45203702 56.78485398 -14.44049007 48.80827576 -3.74694463 -29.77650421
2250510000 -0.77959221 -17.90262155 -13.43623969 56.73010700 -14.43467682 48.67336582 -3.75356991 -29.87752775
2255500000 -0.78112985 -18.02672290 -13.42392990 56.76024664 -14.40187653 48.66564495 -3.76770776 -29.80701016
2260490000 -0.77430587 -18.08747078 -13.41313240 56.74805593 -14.41429271 48.59298696 -3.76032929 -29.88866627
2265480000 -0.77032565 -18.13796518 -13.39021221 56.71727317 -14.36189752 48.55744871 -3.75926336 -29.93233410
2270470000 -0.76355264 -18.14730667 -13.38053291 56.54205475 -14.33993484 48.45781270 -3.76805568 -29.95644786
2275460000 -0.75605893 -18.24850751 -13.37512341 56.56056362 -14.35026914 48.33626436 -3.77466936 -29.92182353
2280450000 -0.76409166 -18.21993944 -13.34587548 56.52986806 -14.33850243 48.36284070 -3.77584980 -29.97681355
2285440000 -0.75699985 -18.34838610 -13.36287475 56.26392936 -14.30390749 48.31579841 -3.78389572 -29.99504748
2290430000 -0.74835446 -18.29459317 -13.35081845 56.29951439 -14.32303782 48.20171586 -3.78835641 -30.05709736
2295420000 -0.75573467 -18.37822299 -13.30437291 56.09186028 -14.30566326 48.37256448 -3.79575227 -30.07475965
2300410000 -0.76806285 -18.32053719 -13.33048634 56.15843554 -14.28904607 48.20980226 -3.78955450 -30.05514838
2305400000 -0.76919968 -18.36911485 -13.32461744 55.86706090 -14.28398117 48.15061390 -3.81043581 -30.09845256
2310390000 -0.77627823 -18.35412884 -13.32523269 56.00132448 -14.29507587 48.17222785 -3.81225185 -30.09414872
2315380000 -0.80016254 -18.38920535 -13.33604983 55.83178107 -14.29375254 48.11096342 -3.82385012 -30.20691518
2320370000 -0.79298204 -18.37518444 -13.30994220 55.95163854 -14.28073427 47.96042110 -3.83804496 -30.23905889
2325360000 -0.80739539 -18.36522004 -13.29045979 55.79210918 -14.27391526 47.97572453 -3.83941977 -30.37863668
2330350000 -0.80842934 -18.47776636 -13.27632677 55.73023570 -14.25854336 47.91458929 -3.84234737 -30.32313260
2335340000 -0.81618390 -18.38867745 -13.27767582 55.82842565 -14.24254837 47.94274045 -3.84674458 -30.44787175
2340330000 -0.82396896 -18.46249633 -13.27825672 55.65663307 -14.24933738 47.97689177 -3.85862588 -30.46946451
2345320000 -0.82704377 -18.44635107 -13.26516373 55.71621187 -14.23075849 48.00680146 -3.85623616 -30.40919224
2350310000 -0.82605516 -18.55930659 -13.26585151 55.72474701 -14.21980660 47.90580609 -3.85022364 -30.52403061
2355300000 -0.82204042 -18.57989049 -13.27292967 55.72636702 -14.20038844 48.07618112 -3.85977229 -30.53215081
2360290000 -0.81336950 -18.66994832 -13.24496394 55.57402414 -14.16608809 47.85377399 -3.86704384 -30.59251911
2365280000 -0.81215434 -18.74905826 -13.24382906 55.45593540 -14.16989609 47.92814548 -3.86562924 -30.62397326
2370270000 -0.81658350 -18.78249601 -13.22470741 55.53473227 -14.14452955 47.88617032 -3.86152177 -30.64739589
2375260000 -0.80334845 -18.86025942 -13.20217845 55.30703633 -14.12408077 47.88743385 -3.87763174 -30.66604670
2380250000 -0.80846966 -18.89504136 -13.19985455 55.26924969 -14.12589756 47.64499602 -3.88159097 -30.65613502
2385240000 -0.79909348 -18.97599566 -13.19281735 55.14815479 -14.09445624 47.71262467 -3.88182131 -30.70295357
2390230000 -0.79349327 -18.94813268 -13.19312623 55.17685432 -14.12358568 47.68520978 -3.88935312 -30.64052337
2395220000 -0.78639954 -19.01879564 -13.17342012 55.04175765 -14.08364013 47.66173770 -3.89659018 -30.69417436
2400210000 -0.80303639 -19.04954056 -13.17814273 54.92777866 -14.09220774 47.54738800 -3.89701405 -30.75920388
2405200000 -0.79566737 -19.05652175 -13.15874632 54.96134474 -14.07146661 47.51116362 -3.90742452 -30.77717788
2410190000 -0.80229228 -19.05266943 -13.12097480 54.97820210 -14.06957728 47.40794828 -3.90225166 -30.81548796
2415180000 -0.81222796 -19.00760190 -13.13389129 54.81118391 -14.06213632 47.54229137 -3.91630467 -30.85965424
2420170000 -0.81988992 -19.03008586 -13.12410877 54.79219087 -14.04597341 47.41680773 -3.92400511 -30.87602271
2425160000 -0.83022694 -19.14075746 -13.12770320 54.82155914 -14.04027736 47.34373543 -3.93793322 -30.90083380
2430150000 -0.84008468 -19.02201505 -13.14501675 54.72716481 -14.04886874 47.39661355 -3.94547978 -31.01396337
2435140000 -0.85347069 -19.07911695 -13.11531767 54.66712278 -14.03048005 47.36443355 -3.94095569 -30.95618471
2440130000 -0.86705220 -19.05029633 -13.10317954 54.52431642 -14.01705254 47.36804652 -3.96027274 -31.07791386
2445120000 -0.86562751 -19.14123828 -13.12216291 54.63198792 -14.01536406 47.32277712 -3.96157061 -31.08972268
2450110000 -0.85820071 -19.15828845 -13.09923164 54.37223145 -14.00255514 47.29811044 -3.96658511 -31.21730685
2455100000 -0.87274454 -19.17665566 -13.11029541 54.51656540 -13.97760012 47.31898457 -3.96408831 -31.18653917
2460090000 -0.86984340 -19.21533394 -13.07448811 54.52393210 -13.98279720 47.36366210 -3.97520666 -31.20268778
2465080000 -0.86222213 -19.27922377 -13.07685461 54.57295055 -13.98043012 47.27489791 -3.97337950 -31.31380008
2470070000 -0.86153656 -19.37559377 -13.06069812 54.35974047 -13.94683411 47.30985888 -3.96123416 -31.29262031
2475060000 -0.86521184 -19.42136584 -13.04403382 54.36849424 -13.93762503 47.17520977 -3.98283883 -31.32764397
2480050000 -0.85451288 -19.52554857 -13.04216235 54.28293338 -13.94622053 47.10433700 -3.96179329 -31.40275913
2485040000 -0.84990298 -19.50556537 -13.01465987 54.35883506 -13.93381450 47.08599840 -3.98529903 -31.34094339
2490030000 -0.85186033 -19.54680418 -13.01518483 54.19106310 -13.92412738 47.13377751 -3.98883692 -31.34786200
2495020000 -0.83910549 -19.62371281 -13.00528423 54.09496660 -13.90792845 46.95276257 -3.98354464 -31.46187114
2500010000 -0.84072542 -19.63934331 -13.01344159 53.89669055 -13.89302459 46.89577397 -3.99457759 -31.41129346
2505000000 -0.85508563 -19.65859802 -13.00474523 53.96771984 -13.89662073 46.90200755 -4.00446269 -31.36714278
2509990000 -0.84730226 -19.67217846 -12.99093769 53.92975775 -13.87970397 46.86216880 -4.00260549 -31.51957300
2514980000 -0.85183493 -19.63491120 -12.97739027 53.77577873 -13.89985063 46.85730425 -4.01768997 -31.49314174
2519970000 -0.86533445 -19.65082200 -13.00151149 53.78539722 -13.86933327 46.72389946 -4.02800050 -31.55686362
2524960000 -0.86320658 -19.71580595 -12.98983321 53.75430995 -13.87156978 46.62424088 -4.03283575 -31.59144205
2529950000 -0.87905305 -19.66564964 -12.96675405 53.54857597 -13.82954281 46.68088646 -4.03768230 -31.64531422
2534940000 -0.88816884 -19.69410582 -12.97215034 53.53137212 -13.84148509 46.59005530 -4.05596310 -31.78694587
2539930000 -0.90394755 -19.75638947 -12.96603639 53.69010491 -13.82364670 46.56552741 -4.04839797 -31.70715698
2544920000 -0.91023912 -19.72153292 -12.94864032 53.43937340 -13.83963961 46.73002561 -4.05472708 -31.75673952
2549910000 -0.92541427 -19.74313079 -12.96019209 53.56288805 -13.83717184 46.74726305 -4.05787374 -31.83197981
2554900000 -0.92556732 -19.77961416 -12.95627551 53.42534651 -13.80136356 46.53152757 -4.07562181 -31.86746094
2559890000 -0.91678932 -19.75102527 -12.96032588 53.38692086 -13.80191601 46.67712972 -4.06999612 -31.88857307
2564880000 -0.92441893 -19.77082310 -12.92970824 53.44990137 -13.80021550 46.62002337 -4.06690731 -31.93142222
2569870000 -0.91567657 -19.83389181 -12.93182070 53.38455704 -13.77177009 46.54353914 -4.08530374 -31.92043077
2574860000 -0.91266439 -19.93661229 -12.90292107 53.31124956 -13.75613392 46.63349078 -4.07111258 -32.07373643
2579850000 -0.91095533 -19.95646095 -12.89789493 53.31870416 -13.75263836 46.62983401 -4.06765286 -32.03583701
2584840000 -0.91510254 -20.04338882 -12.90073314 53.23265480 -13.74755081 46.40376053 -4.08542776 -32.01712494
2589830000 -0.91170481 -20.08214384 -12.88267655 53.26513150 -13.72541010 46.42856827 -4.08164961 -32.11115453
2594820000 -0.89836851 -20.13868511 -12.88187387 53.16338323 -13.73349120 46.36568596 -4.08635663 -32.06224156
2599810000 -0.89898169 -20.15318080 -12.88180463 53.20279761 -13.72085312 46.32432674 -4.09568349 -32.12033072
2604800000 -0.89625943 -20.08723150 -12.85726076 53.10456806 -13.72133282 46.40661160 -4.09864823 -32.12872697
2609790000 -0.90577385 -20.22087960 -12.84341936 52.97204747 -13.69405308 46.35696356 -4.09844159 -32.17175599
2614780000 -0.90002053 -20.21460813 -12.84166524 53.04395273 -13.67617350 46.20170685 -4.10811153 -32.12652498
2619770000 -0.90877029 -20.23323909 -12.86575147 52.85572832 -13.68096715 46.20615931 -4.11151875 -32.13834278
2624760000 -0.92603316 -20.24988349 -12.86554999 52.79398337 -13.68844953 46.02122839 -4.12736732 -32.14370173
2629750000 -0.91334373 -20.19920575 -12.80791803 52.76402162 -13.65927926 46.11507560 -4.13107839 -32.23924122
2634740000 -0.92938615 -20.29613670 -12.82123330 52.63613475 -13.67219923 46.06767052 -4.13541064 -32.29696717
2639730000 -0.94254251 -20.22879543 -12.81624433 52.67862329 -13.67243002 46.11661906 -4.15415740 -32.30500362
2644720000 -0.94356865 -20.24354302 -12.82056697 52.51611953 -13.64650363 46.17906998 -4.15116616 -32.32769281
2649710000 -0.95885131 -20.21989478 -12.81481280 52.62029957 -13.65829152 46.11206283 -4.15637056 -32.43129328
2654700000 -0.97335431 -20.27095969 -12.80673388 52.55185834 -13.64849207 46.11075997 -4.15421383 -32.41417853
2659690000 -0.96894832 -20.29467012 -12.80383954 52.48102987 -13.62979363 46.08287091 -4.16788172 -32.52443130
2664680000 -0.97712170 -20.24206212 -12.78366092 52.54464016 -13.62619545 46.09169705 -4.17371144 -32.54242904
2669670000 -0.97506111 -20.34610919 -12.77779103 52.47005275 -13.60353573 46.05420139 -4.16572109 -32.58144861
2674660000 -0.98313525 -20.32858230 -12.75581160 52.54182300 -13.59573672 46.09993361 -4.16640253 -32.61996124
2679650000 -0.97836210 -20.36592344 -12.75992269 52.41626578 -13.59056071 46.05099891 -4.17679573 -32.59267218
2684640000 -0.97837613 -20.41002219 -12.77533951 52.51977631 -13.56440742 46.00984767 -4.17557975 -32.73739643
2689630000 -0.96488984 -20.53739121 -12.74838319 52.48453009 -13.55507726 45.94173314 -4.17387507 -32.69530552
2694620000 -0.96059714 -20.60720486 -12.71297116 52.16073461 -13.55244855 45.86439300 -4.17793701 -32.74882033
2699610000 -0.96496338 -20.62086920 -12.73144813 52.29905577 -13.54637299 45.88648876 -4.17284335 -32.70381704
2704600000 -0.96824742 -20.60336934 -12.71421726 52.13755835 -13.54514696 45.95041174 -4.18478831 -32.70599736
2709590000 -0.96386089 -20.70127669 -12.73223580 52.08129308 -13.54351542 45.68788882 -4.20149928 -32.71436252
2714580000 -0.94888009 -20.63948128 -12.70345027 52.07982637 -13.53986134 45.72391341 -4.18909712 -32.75384015
2719570000 -0.96301459 -20.69017504 -12.70365602 52.09207523 -13.53489994 45.58486840 -4.20791667 -32.79585431
2724560000 -0.96356332 -20.72344769 -12.69790475 52.05206579 -13.50153805 45.56348431 -4.20851602 -32.85757212
2729550000 -0.96394339 -20.77372195 -12.70883558 51.79157531 -13.48522411 45.59814369 -4.21941303 -32.75767754
2734540000 -0.98550041 -20.72386634 -12.69476358 51.87387291 -13.50615361 45.53988380 -4.22389337 -32.78276821
2739530000 -0.97837605 -20.70640074 -12.67935105 51.89698890 -13.50141177 45.49560584 -4.23282664 -32.94259386
2744520000 -0.99460257 -20.73798346 -12.68684523 51.68020490 -13.47377860 45.52977020 -4.24096691 -32.95999801
2749510000 -0.99678447 -20.69995627 -12.66973929 51.79205210 -13.47757495 45.59133887 -4.24031546 -33.00033433
2754500000 -1.01133885 -20.71921498 -12.68085424 51.69530803 -13.47434631 45.54675742 -4.25360809 -33.07285658
2759490000 -1.01949650 -20.76094980 -12.64876015 51.66221580 -13.46891764 45.46242040 -4.26101911 -33.04259208
2764480000 -1.02787860 -20.73990543 -12.65952287 51.71434931 -13.45448781 45.53147209 -4.26978645 -33.15255650
2769470000 -1.03884657 -20.70897740 -12.63943132 51.63127266 -13.46021470 45.44062626 -4.27009244 -33.19319588
2774460000 -1.04144179 -20.80209277 -12.61950648 51.72000833 -13.42828798 45.40313355 -4.27090828 -33.23283301
2779450000 -1.04014409 -20.82277541 -12.63374502 51.55425174 -13.41911192 45.55289102 -4.27051439 -33.28365885
2784440000 -1.05140635 -20.91026097 -12.62714769 51.53765430 -13.43852512 45.40971126 -4.28041886 -33.24882623
2789430000 -1.03333988 -20.89495492 -12.61315548 51.49427521 -13.41559090 45.54672331 -4.25803626 -33.32090039
2794420000 -1.03374261 -20.95912260 -12.60584644 51.45578309 -13.41228047 45.38401604 -4.26822062 -33.36942324
2799410000 -1.03325179 -21.01362376 -12.60602800 51.49707307 -13.38158284 45.42126464 -4.26757920 -33.28465914
2804400000 -1.03335370 -21.09478518 -12.58389648 51.39443222 -13.39719417 45.44178317 -4.26605189 -33.35794735
2809390000 -1.02995155 -21.12398130 -12.59726379 51.27416718 -13.37596866 45.35610887 -4.28387018 -33.35603058
2814380000 -1.02223251 -21.15904454 -12.56359841 51.21443830 -13.35760999 45.25447289 -4.28612357 -33.34403917
2819370000 -1.02295991 -21.14498857 -12.56634593 51.33857817 -13.36533561 45.26418211 -4.28290857 -33.39087113
2824360000 -1.02229864 -21.16369642 -12.56656234 51.08668516 -13.35512002 45.26329068 -4.29890595 -33.35437652
2829350000 -1.02978049 -21.20000552 -12.55987143 51.04287562 -13.34109761 45.05277482 -4.29154171 -33.43312598
2834340000 -1.02051988 -21.22863405 -12.54905810 51.08000794 -13.34820589 45.18629981 -4.30039814 -33.51736186
2839330000 -1.03092109 -21.22043654 -12.57182116 50.94118312 -13.33818636 45.04350797 -4.32349713 -33.41008947
2844320000 -1.03182228 -21.23085832 -12.53522227 50.94497803 -13.33086993 45.15638182 -4.32151678 -33.43523186
2849310000 -1.05548403 -21.18983408 -12.54987334 51.07274472 -13.31064551 45.07151215 -4.31577536 -33.51419380
2854300000 -1.06184135 -21.19739172 -12.55933522 50.94345276 -13.32152404 44.99417960 -4.33850228 -33.61519124
2859290000 -1.06918187 -21.20001697 -12.53343201 50.84243438 -13.30494127 44.97737600 -4.34532474 -33.63197777
2864280000 -1.06428505 -21.22495484 -12.52741048 50.88105691 -13.30952810 45.01161620 -4.35873349 -33.72519832
2869270000 -1.07710536 -21.21956511 -12.53582296 50.92072017 -13.30872721 45.00500413 -4.35995576 -33.71421519
2874260000 -1.08789374 -21.24233985 -12.51632693 50.85615655 -13.29025492 44.94010506 -4.36646640 -33.73845800
2879250000 -1.09196954 -21.26705109 -12.50509718 50.88198730 -13.28968336 45.01813092 -4.37351696 -33.85793077
2884240000 -1.10207082 -21.31248483 -12.50979189 50.72215496 -13.25967151 44.95368483 -4.35137356 -33.87145233
2889230000 -1.10848654 -21.35591326 -12.50955088 50.74497676 -13.25477880 45.01034602 -4.36303128 -33.82840551
2894220000 -1.09973646 -21.35858574 -12.50164181 50.80222408 -13.25073530 44.95831379 -4.36776546 -33.94629302
2899210000 -1.09910280 -21.39418112 -12.49449541 50.76249309 -13.23268357 45.07592310 -4.37163787 -33.95361441
2904200000 -1.09211231 -21.53761290 -12.46076484 50.63519123 -13.25032218 44.96066232 -4.38183105 -33.93627181
2909190000 -1.08445359 -21.54806672 -12.45225318 50.63089803 -13.20849971 44.88744273 -4.37787398 -34.00621309
2914180000 -1.08727015 -21.61371759 -12.44900406 50.61838177 -13.20515948 44.72678662 -4.38290342 -33.99501459
2919170000 -1.07544851 -21.57125816 -12.43225918 50.57884214 -13.20045644 44.78312302 -4.37883464 -34.02526248
2924160000 -1.08179615 -21.64157843 -12.43876845 50.49552834 -13.20000481 44.78518171 -4.38583133 -34.04222893
2929150000 -1.09053017 -21.71743355 -12.43842545 50.37280767 -13.18788742 44.64625868 -4.38597216 -34.01443330
2934140000 -1.07857715 -21.70162686 -12.40692425 50.45358003 -13.19951922 44.70521047 -4.39351459 -34.02569727
2939130000 -1.08227613 -21.62834843 -12.41667559 50.38131705 -13.19467510 44.68825678 -4.39517011 -33.99014877
2944120000 -1.08937773 -21.69265432 -12.44445161 50.31387351 -13.17030609 44.64411045 -4.41571758 -34.03409106
2949110000 -1.09119551 -21.66729480 -12.42135161 50.35127823 -13.18210394 44.59673357 -4.42223590 -34.12418915
2954100000 -1.10198280 -21.63277506 -12.40744908 50.26679693 -13.17145468 44.60625395 -4.43093207 -34.09765939
2959090000 -1.10984850 -21.69475959 -12.41683815 50.31972782 -13.15537785 44.59340805 -4.41730944 -34.15486889
2964080000 -1.11403369 -21.70994984 -12.39906080 50.13488110 -13.14737489 44.64331774 -4.44101455 -34.22800339
2969070000 -1.12564794 -21.65614802 -12.38712794 50.28894597 -13.15293560 44.65579501 -4.44240975 -34.22176139
2974060000 -1.13478481 -21.67848708 -12.39831208 50.24216379 -13.13192679 44.73214377 -4.44767251 -34.24169748
2979050000 -1.13354710 -21.74843432 -12.38143821 50.23027377 -13.12563450 44.66002407 -4.45020592 -34.42078703
2984040000 -1.14661469 -21.76305733 -12.38310963 50.20249039 -13.10831051 44.71071750 -4.45759995 -34.33496880
2989030000 -1.15121557 -21.80879220 -12.36941725 50.21115160 -13.11183271 44.75268410 -4.45355900 -34.38405227
2994020000 -1.15678282 -21.83292196 -12.36333811 50.01936347 -13.10410260 44.58390265 -4.47025960 -34.45436302
2999010000 -1.15300387 -21.85602972 -12.35127719 50.14670098 -13.07890492 44.47277946 -4.45832758 -34.53700645
3004000000 -1.16374518 -21.93589990 -12.34256952 49.99834880 -13.08700278 44.60059249 -4.46985531 -34.47511481
3008990000 -1.16326979 -22.00950141 -12.33601411 50.11781592 -13.08874830 44.58131259 -4.46875982 -34.52021399
3013980000 -1.14631130 -22.05703363 -12.31835248 49.93834691 -13.06083816 44.42141840 -4.47627554 -34.54480140
3018970000 -1.14708452 -22.06018735 -12.31309621 49.82580421 -13.05852994 44.52527224 -4.47407344 -34.56872671
3023960000 -1.14487819 -22.04897185 -12.29809553 49.89921782 -13.04370420 44.49310740 -4.47391877 -34.59660189
3028950000 -1.14090681 -22.16472741 -12.29444515 49.89521016 -13.02034168 44.47418305 -4.46916684 -34.57149259
3033940000 -1.13521563 -22.14791099 -12.27013113 49.83652671 -13.04237762 44.28918235 -4.47965114 -34.52871048
3038930000 -1.12907827 -22.17584867 -12.29209492 49.72782761 -13.02418701 44.50463241 -4.49051650 -34.56828106
3043920000 -1.14261779 -22.17670598 -12.28193651 49.67269241 -13.01056417 44.35054271 -4.50057208 -34.64001822
3048910000 -1.14061425 -22.24365240 -12.28385066 49.63935550 -13.03160619 44.24421100 -4.49577983 -34.65515001
3053900000 -1.14185931 -22.18787995 -12.27788592 49.46851398 -13.00735431 44.19002041 -4.50225297 -34.66828578
3058890000 -1.15376324 -22.18515655 -12.26039911 49.43630039 -12.99089604 44.38049250 -4.50850201 -34.62812890
3063880000 -1.15819789 -22.19484099 -12.27034131 49.52098729 -12.98663217 44.20105050 -4.51722257 -34.65580099
3068870000 -1.16867136 -22.16490599 -12.25839788 49.43654163 -12.97727346 44.16178521 -4.53066792 -34.75385500
3073860000 -1.18092393 -22.19118769 -12.27377579 49.54670171 -12.98121124 44.27582068 -4.52193561 -34.73983528
3078850000 -1.18546613 -22.18727226 -12.26098857 49.46680497 -12.96186826 44.34907952 -4.53425868 -34.81162694
3083840000 -1.18943497 -22.24518389 -12.23822758 49.41536620 -12.96591056 44.23899298 -4.54021934 -34.84046446
3088830000 -1.19874732 -22.25293676 -12.23435191 49.44015739 -12.94451891 44.15330930 -4.54038660 -34.81297205
3093820000 -1.19856577 -22.28936540 -12.21114011 49.31734636 -12.94230891 44.24778376 -4.53273279 -34.95694516
3098810000 -1.20537456 -22.37099869 -12.21443019 49.37612938 -12.94482082 44.27607608 -4.54819690 -34.90864039
3103800000 -1.20321908 -22.36979831 -12.20619270 49.33768408 -12.93135445 44.12660416 -4.54794735 -35.05069005
3108790000 -1.20438855 -22.47451123 -12.19896451 49.29447941 -12.92301282 44.06140494 -4.55560463 -35.03478371
3113780000 -1.21236005 -22.49184939 -12.20237954 49.17844547 -12.90023760 44.09296509 -4.56527690 -35.08225609
3118770000 -1.20405916 -22.52739706 -12.16901483 49.18945805 -12.91991669 44.12915905 -4.55966237 -35.11544301
3123760000 -1.18147960 -22.59283318 -12.16873345 49.23580299 -12.87626040 44.09023996 -4.55412114 -35.10070069
3128750000 -1.19123091 -22.65234425 -12.17587100 49.09171004 -12.87732058 44.03295593 -4.56424813 -35.12814383
3133740000 -1.18580596 -22.67460974 -12.15152742 49.07796245 -12.86942546 43.91118137 -4.57144998 -35.16974169
3138730000 -1.19291434 -22.74639662 -12.17448853 49.00706351 -12.86800546 43.83960512 -4.55817063 -35.16652412
3143720000 -1.18701730 -22.76214905 -12.14777059 49.07613714 -12.85691799 44.02117563 -4.56768340 -35.16066490
3148710000 -1.19378115 -22.68257324 -12.14992954 49.01689558 -12.85444717 43.93084713 -4.58627590 -35.14203111
3153700000 -1.19118291 -22.74385619 -12.12778759 48.89792746 -12.86415815 43.80150832 -4.57867146 -35.12584841
3158690000 -1.19223481 -22.76975363 -12.13152152 48.90841599 -12.85799307 43.90854296 -4.58089901 -35.21420334
3163680000 -1.19363417 -22.71786709 -12.14899232 49.00266835 -12.84609357 43.68988431 -4.59823880 -35.23229215
3168670000 -1.19952598 -22.77690859 -12.11605681 48.79585843 -12.82295062 43.75245467 -4.59995628 -35.26852633
3173660000 -1.21188682 -22.71326393 -12.10883783 48.84045319 -12.84014672 43.77525694 -4.61187351 -35.28977305
3178650000 -1.22211089 -22.75061580 -12.11928308 48.77117714 -12.80584390 43.79881132 -4.61274205 -35.26636279
3183640000 -1.22362612 -22.68274681 -12.10906578 48.74781504 -12.80134998 43.73747156 -4.61019801 -35.36656279
3188630000 -1.22994961 -22.72273794 -12.10831112 48.82896617 -12.80014139 43.90725707 -4.61853235 -35.34643960
3193620000 -1.24462534 -22.80586589 -12.10463488 48.75034139 -12.80571858 43.64041574 -4.62500322 -35.38746691
3198610000 -1.23810385 -22.83053127 -12.08469548 48.76025919 -12.81336914 43.80786717 -4.62540782 -35.42339128
3203600000 -1.24642408 -22.86697338 -12.08118000 48.58152807 -12.78129817 43.78969590 -4.63215403 -35.44121416
3208590000 -1.25715580 -22.95256192 -12.06493989 48.67407922 -12.75128367 43.68426489 -4.63641110 -35.52420247
3213580000 -1.25806374 -23.01018539 -12.07552952 48.55163760 -12.75819242 43.76270584 -4.63393754 -35.59472099
3218570000 -1.24258083 -23.06612325 -12.07276190 48.70374744 -12.75921816 43.59479493 -4.64118554 -35.55431425
3223560000 -1.26337760 -23.09683120 -12.06969933 48.46164495 -12.74956670 43.61813960 -4.65341351 -35.59520563
3228550000 -1.24322835 -23.24372086 -12.03750200 48.60369296 -12.72983844 43.69058699 -4.64711166 -35.63549204
3233540000 -1.24385466 -23.27472079 -12.04043446 48.40446921 -12.73449527 43.59067821 -4.64561274 -35.72151894
3238530000 -1.23987198 -23.29822531 -12.01593081 48.44920679 -12.74232495 43.59920868 -4.64535862 -35.72790719
3243520000 -1.23199938 -23.34316600 -12.02467638 48.32591166 -12.70102978 43.50846244 -4.65052652 -35.73003086
3248510000 -1.22834976 -23.35810845 -12.01188365 48.33567035 -12.70960122 43.60533382 -4.65105382 -35.77176604
3253500000 -1.23655485 -23.32338885 -12.02458800 48.22806321 -12.70934894 43.54736584 -4.67437483 -35.67796639
3258490000 -1.23113289 -23.34801670 -12.01317188 48.18403681 -12.68361194 43.35827604 -4.67680060 -35.77636217
3263480000 -1.22331106 -23.36765291 -11.98816495 48.18326074 -12.67710496 43.42515161 -4.66976862 -35.76894106
3268470000 -1.23784776 -23.40381771 -11.97927739 48.13543320 -12.68257283 43.44039696 -4.68409460 -35.77828655
3273460000 -1.24045065 -23.34209619 -11.96779347 48.06674774 -12.66336030 43.31057624 -4.68995062 -35.80677654
3278450000 -1.25053018 -23.36736355 -11.96868743 48.13183195 -12.67860119 43.46831421 -4.69239706 -35.85317140
3283440000 -1.26311181 -23.31185378 -11.97567098 48.06318734 -12.65493109 43.22886256 -4.70049037 -35.82591112
3288430000 -1.26037108 -23.37529819 -11.97183120 48.03368868 -12.66256887 43.38630575 -4.70643906 -35.88494897
3293420000 -1.27576719 -23.33079053 -11.97246432 48.09405697 -12.64746652 43.37220054 -4.70117476 -35.88940596
3298410000 -1.27891998 -23.46396829 -11.95994558 47.93252109 -12.64678091 43.30003823 -4.71989523 -35.99616603
3303400000 -1.28390371 -23.45581655 -11.96947573 47.98427823 -12.62414719 43.34891952 -4.71971580 -35.97580406
3308390000 -1.29037649 -23.45926834 -11.94319775 48.03937326 -12.62829489 43.23135818 -4.71731305 -35.99308615
3313380000 -1.29040828 -23.54749752 -11.92796013 47.95226851 -12.63064629 43.03944122 -4.72318191 -36.05304137
3318370000 -1.29925344 -23.64715675 -11.92601817 47.85705032 -12.61159266 43.24053581 -4.73184548 -36.05877206
3323360000 -1.29793284 -23.78937597 -11.91494956 47.81801768 -12.58826638 43.11820802 -4.72767123 -36.01922877
3328350000 -1.29087973 -23.76879879 -11.93607460 47.75554255 -12.59230901 43.15736828 -4.73073488 -36.13036302
3333340000 -1.28238047 -23.84161683 -11.91272862 47.69476424 -12.59316457 43.13510328 -4.73659352 -36.19901745
3338330000 -1.28578947 -23.92731194 -11.89802139 47.66640796 -12.57360998 43.07925899 -4.74320345 -36.11798855
3343320000 -1.27401281 -23.97029490 -11.89187350 47.55777388 -12.55608325 43.07852786 -4.74232901 -36.21687582
3348310000 -1.27738059 -23.99372643 -11.88157861 47.65047250 -12.55728979 43.07711283 -4.73770201 -36.17042200
3353300000 -1.27469916 -23.99652835 -11.88959587 47.58993495 -12.56525450 42.94982855 -4.74551811 -36.16361631
3358290000 -1.28399167 -23.99316854 -11.88555176 47.43590770 -12.53866015 43.03869483 -4.73889941 -36.18415863
3363280000 -1.27791902 -24.01662934 -11.87477149 47.50920112 -12.54849031 42.88778212 -4.75505167 -36.21002848
3368270000 -1.28047766 -24.10966656 -11.87018054 47.41967662 -12.53001659 42.86366065 -4.75355436 -36.24854903
3373260000 -1.27673023 -24.09634860 -11.85445696 47.38390554 -12.52327415 42.77970234 -4.76668093 -36.26902656
3378250000 -1.28692267 -24.08848671 -11.87608258 47.36331349 -12.54067580 42.79181603 -4.77034879 -36.30809683
3383240000 -1.28455852 -24.09949052 -11.84885165 47.39138077 -12.50731866 42.83024287 -4.76837397 -36.33715279
3388230000 -1.29443605 -24.03221718 -11.86338577 47.34834995 -12.52422403 42.75045061 -4.77420989 -36.37830340
3393220000 -1.31239645 -24.06025662 -11.84452217 47.33885057 -12.50152490 42.84967868 -4.77915860 -36.40202614
3398210000 -1.30449397 -24.01936235 -11.85097110 47.39907742 -12.49207975 42.82607404 -4.77690087 -36.32564285
3403200000 -1.30970118 -24.11109197 -11.81911262 47.30248740 -12.50283094 42.85752535 -4.79184710 -36.39070452
3408190000 -1.31765189 -24.13697143 -11.84138041 47.33839005 -12.49747246 42.79206581 -4.78625618 -36.46532337
3413180000 -1.32760261 -24.25908292 -11.83470932 47.19873298 -12.48493768 42.74298910 -4.80818168 -36.45484882
3418170000 -1.33080792 -24.25366210 -11.82489863 47.17882553 -12.46709491 42.66552117 -4.80667681 -36.53426410
3423160000 -1.33982854 -24.34781793 -11.81983707 47.12060220 -12.48350098 42.73584774 -4.79935929 -36.57867400
3428150000 -1.33429458 -24.38881501 -11.81912541 47.15099588 -12.47308111 42.63583115 -4.81065382 -36.62718063
3433140000 -1.34340126 -24.46065849 -11.81211114 47.10038227 -12.44960638 42.70076114 -4.81551957 -36.61776602
3438130000 -1.33628231 -24.55457840 -11.81243001 47.09344527 -12.45476598 42.63541192 -4.81787541 -36.57856156
3443120000 -1.33665789 -24.60610359 -11.77783450 46.99256058 -12.44345445 42.58298494 -4.81276689 -36.68039665
3448110000 -1.32791313 -24.67789018 -11.79145207 46.96949415 -12.43455018 42.53449681 -4.80843661 -36.56534172
3453100000 -1.32590077 -24.74737892 -11.76925847 46.87298796 -12.41894576 42.44793165 -4.83694919 -36.66543363
3458090000 -1.31962107 -24.71072717 -11.78242967 46.87054307 -12.42466050 42.40903533 -4.81816047 -36.65542513
3463080000 -1.31967286 -24.76794367 -11.76547429 46.83661681 -12.40653604 42.38270357 -4.83605705 -36.70711749
3468070000 -1.32278336 -24.80832002 -11.76790162 46.74158037 -12.42088448 42.38929897 -4.82808394 -36.71636130
3473060000 -1.32792560 -24.78451096 -11.77773220 46.86372967 -12.43704228 42.43631485 -4.84133363 -36.75647455
3478050000 -1.32226862 -24.84405982 -11.74993118 46.66116658 -12.40335647 42.45381897 -4.85262787 -36.75571253
3483040000 -1.31882060 -24.79038518 -11.76220721 46.75991211 -12.40206910 42.31088884 -4.84691214 -36.71381598
3488030000 -1.32938659 -24.82406546 -11.73149492 46.70290545 -12.38698523 42.29188394 -4.85587950 -36.89923358
3493020000 -1.32785016 -24.78319265 -11.74680249 46.64792131 -12.37999006 42.30996781 -4.86664516 -36.79844824
3498010000 -1.33363437 -24.82663573 -11.73392559 46.59927590 -12.37874159 42.34598016 -4.86000568 -36.84182121
3503000000 -1.35004077 -24.87024282 -11.73049712 46.62385331 -12.37887705 42.25944626 -4.86846685 -36.86729529
3507990000 -1.35863900 -24.87016956 -11.73291322 46.56938183 -12.37573654 42.24063883 -4.86023944 -36.92562869
3512980000 -1.36761173 -24.84994996 -11.73417345 46.51357034 -12.36333018 42.32647321 -4.87935167 -36.98382373
3517970000 -1.37245547 -24.90885666 -11.72620044 46.53156597 -12.36298964 42.23509901 -4.87929940 -36.97884028
3522960000 -1.37234542 -24.99896643 -11.71176912 46.47915688 -12.34665926 42.16069723 -4.88883664 -36.93572733
3527950000 -1.37676866 -25.05875074 -11.69867237 46.49307440 -12.35859946 42.25006614 -4.88464815 -37.00370832
3532940000 -1.37188684 -25.14939814 -11.70973446 46.33716976 -12.34184299 42.17299273 -4.89281662 -37.04983074
3537930000 -1.38304356 -25.21960405 -11.70583653 46.32748479 -12.33750116 42.15261636 -4.90019490 -37.05602330
3542920000 -1.37980975 -25.24839984 -11.69005022 46.37733843 -12.33111660 42.18004196 -4.88791454 -37.06534374
3547910000 -1.37952023 -25.39231007 -11.69100883 46.29572626 -12.32074545 42.16620937 -4.89458288 -37.03467303
3552900000 -1.37527359 -25.38431983 -11.68435134 46.20718446 -12.30764382 42.02649874 -4.90361222 -37.12194958
3557890000 -1.35797047 -25.46137905 -11.67618600 46.31635341 -12.29541276 42.04265466 -4.89678001 -37.14301892
3562880000 -1.35690655 -25.49590675 -11.65947180 46.21822969 -12.28645947 41.97054150 -4.90402372 -37.10541881
3567870000 -1.37334386 -25.53833280 -11.65276362 46.01741940 -12.27907317 41.98313493 -4.90760968 -37.19197125
3572860000 -1.36047283 -25.55840746 -11.65752241 46.09136550 -12.29146611 42.07045870 -4.91462540 -37.12984095
3577850000 -1.35585578 -25.55136749 -11.63960838 46.10000302 -12.27263492 41.86288596 -4.91928441 -37.19943455
3582840000 -1.35619033 -25.59339638 -11.64073928 46.12222581 -12.28416719 41.77033773 -4.93724432 -37.11932231
3587830000 -1.37067341 -25.52465556 -11.64161659 45.91937441 -12.28799124 41.84189643 -4.92714208 -37.29302644
3592820000 -1.38084624 -25.57007614 -11.66222186 45.98138640 -12.27875538 41.85466885 -4.94049751 -37.26858426
3597810000 -1.37771032 -25.60084993 -11.63862309 46.01561953 -12.25914245 41.84309245 -4.94138282 -37.25036304
3602800000 -1.38251085 -25.62347624 -11.64651026 45.91321395 -12.27303656 41.82730339 -4.95367087 -37.28400085
3607790000 -1.38258499 -25.59086265 -11.62753494 45.96843800 -12.25587385 41.77905470 -4.94848901 -37.38944621
3612780000 -1.38858386 -25.58304051 -11.62628174 45.93852923 -12.25914550 41.84436970 -4.95136265 -37.39406429
3617770000 -1.40479332 -25.64948457 -11.61484116 45.83333324 -12.24888966 41.78236733 -4.94698793 -37.40160347
3622760000 -1.41199693 -25.63503486 -11.62812008 45.88613198 -12.23867323 41.80404139 -4.96027453 -37.40637139
3627750000 -1.41345055 -25.70091623 -11.60937075 45.85573076 -12.23921577 41.74013736 -4.95556002 -37.49077744
3632740000 -1.42208413 -25.77267564 -11.60468423 45.80871043 -12.23219128 41.76465497 -4.96396729 -37.44935373
3637730000 -1.42418474 -25.82198337 -11.60986656 45.77643038 -12.21580284 41.81378075 -4.96079576 -37.60611501
3642720000 -1.41512344 -25.95488112 -11.59895799 45.75792844 -12.19991505 41.63385629 -4.95490698 -37.49155965
3647710000 -1.41849917 -26.01971252 -11.57205729 45.80580313 -12.20430579 41.75545205 -4.95532072 -37.47491459
3652700000 -1.41504302 -26.07960054 -11.58057098 45.72139600 -12.19659410 41.62113665 -4.97211991 -37.66557734
3657690000 -1.41137862 -26.12458571 -11.57131863 45.57458109 -12.19535822 41.58359801 -4.97011069 -37.60218015
3662680000 -1.41120446 -26.20416339 -11.56907172 45.73946588 -12.18391117 41.61009272 -4.97586291 -37.66843400
3667670000 -1.41159751 -26.24512955 -11.55412276 45.56972290 -12.18697089 41.48039950 -4.97725259 -37.59722928
3672660000 -1.40429903 -26.25826252 -11.56399658 45.43206990 -12.17564753 41.57151004 -4.98497096 -37.66943441
3677650000 -1.40622239 -26.29827616 -11.55196913 45.46969350 -12.17138340 41.53296757 -4.98406355 -37.60288161
3682640000 -1.40715790 -26.35466455 -11.53966165 45.52744472 -12.16971293 41.48019655 -5.00020137 -37.58615116
3687630000 -1.40027100 -26.32234690 -11.55646829 45.40863105 -12.15934393 41.43826344 -4.99464875 -37.68512445
3692620000 -1.41214784 -26.39633732 -11.55208919 45.38496311 -12.16291232 41.39866520 -4.99701892 -37.62954808
3697610000 -1.40826755 -26.36596896 -11.53825173 45.30145503 -12.15289370 41.41522514 -5.01069892 -37.71772316
3702600000 -1.41175381 -26.35125845 -11.53212323 45.41138444 -12.14849355 41.37696596 -5.01526620 -37.69653472
3707590000 -1.42311610 -26.35659685 -11.52874449 45.35021310 -12.15258559 41.25466704 -5.01799906 -37.76259572
3712580000 -1.42220817 -26.29391614 -11.51173560 45.42163292 -12.14399314 41.41397249 -5.03133848 -37.82240928
3717570000 -1.43633828 -26.44161975 -11.52585317 45.21811843 -12.13332003 41.36193829 -5.01727210 -37.78131848
3722560000 -1.43799223 -26.38233440 -11.52492965 45.26931452 -12.12774715 41.49382938 -5.02514431 -37.73505675
3727550000 -1.44865017 -26.34477422 -11.52225860 45.31335974 -12.13548055 41.42791488 -5.04012062 -37.89535350
3732540000 -1.45584083 -26.46658530 -11.51692616 45.19648344 -12.12328790 41.19793951 -5.03074253 -37.91970405
3737530000 -1.45404919 -26.47535509 -11.51352454 45.23849397 -12.09646173 41.32460705 -5.03813736 -37.86082024
3742520000 -1.45378476 -26.59542669 -11.49830145 45.04288764 -12.10784546 41.37880337 -5.03906438 -37.92708222
3747510000 -1.46806253 -26.67013541 -11.49301581 45.15269441 -12.10736552 41.31783469 -5.03437100 -37.93513557
3752500000 -1.46178967 -26.70994682 -11.47934610 45.09687191 -12.08442261 41.26717574 -5.03481263 -37.98436916
3757490000 -1.46402895 -26.79733291 -11.47510257 44.96543013 -12.07230819 41.28480039 -5.04627182 -37.96376429
3762480000 -1.45879968 -26.81588527 -11.46526363 45.04246127 -12.07354845 41.28571773 -5.04030687 -38.07908860
3767470000 -1.46526917 -26.88152861 -11.47892923 44.93430854 -12.06312208 41.22597225 -5.05064616 -37.97506996
3772460000 -1.44945240 -26.93295505 -11.46843633 44.95181750 -12.05277935 41.13479160 -5.04075228 -38.07592266
3777450000 -1.44225322 -26.97970539 -11.46342580 44.88967769 -12.06088999 41.18082799 -5.05639064 -38.11331095
3782440000 -1.45292097 -26.98543089 -11.45564713 44.91034805 -12.05563580 41.14116034 -5.05787913 -38.15412064
3787430000 -1.44733542 -27.01360552 -11.43571068 44.80451078 -12.04655301 41.14560551 -5.05539142 -38.06804359
3792420000 -1.45651775 -27.06886536 -11.45742933 44.76701911 -12.04265938 41.03440851 -5.05224930 -38.17192910
3797410000 -1.44191021 -27.04342014 -11.45052280 44.87070854 -12.02585349 40.84060191 -5.06979302 -38.12867398
3802400000 -1.45946888 -27.10657575 -11.43831901 44.74711884 -12.03616818 40.98230103 -5.07371603 -38.16974282
3807390000 -1.46093028 -27.15895711 -11.44589651 44.80484752 -12.02530901 40.93873214 -5.08219331 -38.22133494
3812380000 -1.46203237 -27.07202273 -11.44153911 44.70138501 -12.01867591 40.95032846 -5.07788848 -38.19067446
3817370000 -1.47143313 -27.07538616 -11.44514302 44.74320640 -12.02539468 40.82222840 -5.08252570 -38.21460941
3822360000 -1.48024669 -27.07852204 -11.44354010 44.73707322 -12.02689870 40.97273104 -5.10067391 -38.18233479
3827350000 -1.48231013 -27.11243183 -11.40698925 44.73270290 -12.01195125 40.87385314 -5.10682174 -38.35374443
3832340000 -1.48056333 -27.13942626 -11.39395948 44.66683793 -12.00607352 40.90092127 -5.10212676 -38.30240549
3837330000 -1.50069453 -27.16384514 -11.40777284 44.55413649 -11.99436804 40.89163486 -5.09971960 -38.27377415
3842320000 -1.49410143 -27.17966899 -11.41897880 44.53615223 -11.98111679 40.88131014 -5.11689873 -38.36403679
3847310000 -1.50618735 -27.21425715 -11.40797837 44.60913883 -11.98635082 40.90453849 -5.10428636 -38.34933723
3852300000 -1.51151275 -27.33109066 -11.39574183 44.55865762 -12.00457828 40.79739983 -5.09952778 -38.42519315
3857290000 -1.51724665 -27.32493107 -11.40362147 44.57139914 -11.97714245 40.91193722 -5.11336391 -38.36626522
3862280000 -1.51504947 -27.48933327 -11.38845961 44.47147275 -11.96644162 40.86409741 -5.10539641 -38.42373995
3867270000 -1.51621041 -27.47628056 -11.38369338 44.40643474 -11.95592467 40.76595680 -5.11730575 -38.35251798
3872260000 -1.50733821 -27.54320179 -11.37002795 44.38549692 -11.95746923 40.83605419 -5.12034807 -38.51241568
3877250000 -1.50135956 -27.50972873 -11.38758655 44.41497621 -11.95937868 40.72647518 -5.12779569 -38.43331087
3882240000 -1.50451861 -27.67070014 -11.36283737 44.37769780 -11.94636313 40.68196955 -5.12759411 -38.45188156
3887230000 -1.49828427 -27.67049743 -11.35285474 44.29070065 -11.94237834 40.78958034 -5.12684429 -38.51026965
3892220000 -1.50045742 -27.63562571 -11.35896097 44.25147299 -11.93865782 40.70135228 -5.12426743 -38.50956443
3897210000 -1.50761155 -27.66700027 -11.35791111 44.26172302 -11.94729234 40.58962655 -5.13674091 -38.59018763
3902200000 -1.49977178 -27.70621447 -11.34874235 44.21237691 -11.92733073 40.59868479 -5.14130992 -38.55574052
3907190000 -1.50977933 -27.68543115 -11.36721443 44.19794140 -11.94030432 40.56259043 -5.14542265 -38.57273284
3912180000 -1.51027347 -27.76920552 -11.34616683 44.16745522 -11.91637362 40.53864667 -5.13729366 -38.62188714
3917170000 -1.50847601 -27.67902982 -11.33764645 44.12691576 -11.91618824 40.46797196 -5.14745898 -38.61870340
3922160000 -1.50975334 -27.72984333 -11.32561190 44.08557846 -11.89638862 40.46340974 -5.15084593 -38.61878474
3927150000 -1.51755280 -27.68612797 -11.32447557 44.20155752 -11.91859192 40.65077773 -5.14765181 -38.63413077
3932140000 -1.53010456 -27.73403227 -11.33303909 44.13628250 -11.91352019 40.49067008 -5.16167113 -38.69830432
3937130000 -1.53669318 -27.72834652 -11.32997725 44.03803355 -11.89988902 40.51563677 -5.15484108 -38.67296363
3942120000 -1.53655463 -27.74444009 -11.30878122 44.12702030 -11.89275035 40.48827821 -5.17412315 -38.72755265
3947110000 -1.53710067 -27.82807087 -11.30523953 43.99248658 -11.88004193 40.51515737 -5.16371491 -38.75220695
3952100000 -1.55343625 -27.83364129 -11.33045366 43.97182043 -11.90228392 40.44350771 -5.17428827 -38.80917264
3957090000 -1.55831463 -27.87300448 -11.30760269 43.99548725 -11.87212986 40.54132502 -5.18128087 -38.74954036
3962080000 -1.54946984 -27.94956817 -11.27824348 43.94611357 -11.87888132 40.51979936 -5.17684888 -38.79582331
3967070000 -1.55974549 -27.99402174 -11.28946742 43.92748721 -11.86168995 40.47356192 -5.16645922 -38.89286020
3972060000 -1.55201204 -28.07314259 -11.30149951 43.76830717 -11.84187293 40.56095068 -5.18789811 -38.86410518
3977050000 -1.55004543 -28.12540441 -11.28180830 43.92538458 -11.84437437 40.38909023 -5.17764248 -38.87841978
3982040000 -1.55449856 -28.09971683 -11.26915100 43.78697978 -11.85691034 40.30256102 -5.19476475 -38.94688164
3987030000 -1.54814212 -28.16002891 -11.27336323 43.73285165 -11.83982601 40.30323143 -5.19803177 -38.89610305
3992020000 -1.55366185 -28.24623971 -11.27139059 43.67628934 -11.84143127 40.32254558 -5.18930049 -38.95373807
3997010000 -1.55320072 -28.27366069 -11.26218840 43.64151392 -11.81960847 40.24883989 -5.18704924 -39.01379276
4002000000 -1.54505883 -28.28386228 -11.26050660 43.62511071 -11.83477843 40.18724975 -5.19723264 -38.93248760
4006990000 -1.54567123 -28.25221584 -11.25510507 43.70449533 -11.82412885 40.23926283 -5.19360586 -38.97513651
4011980000 -1.54351638 -28.29145755 -11.25644979 43.71047688 -11.82560802 40.19825975 -5.20804018 -38.97739461
4016970000 -1.55277828 -28.30293034 -11.24327954 43.60387963 -11.82685061 40.16571234 -5.20887215 -39.02904839
4021960000 -1.54808977 -28.26984647 -11.24879958 43.63694819 -11.80043371 40.26697978 -5.21753937 -39.09067749
4026950000 -1.56091527 -28.22601654 -11.25261903 43.53786587 -11.81084274 40.08813664 -5.22456187 -39.17556545
4031940000 -1.55927691 -28.22446482 -11.24658561 43.38134162 -11.80218008 40.20670127 -5.21777294 -39.08200949
4036930000 -1.56497835 -28.23625490 -11.24148465 43.49347682 -11.79778615 40.15361411 -5.22424947 -39.10847535
4041920000 -1.56584287 -28.23885367 -11.22783418 43.39764278 -11.80162160 40.07496506 -5.21701137 -39.20737388
4046910000 -1.58024582 -28.25508757 -11.22156187 43.52573025 -11.80134713 40.26903536 -5.22520378 -39.16230112
4051900000 -1.59123295 -28.28343623 -11.24041477 43.48886894 -11.79679519 40.08498134 -5.24845774 -39.09427280
4056890000 -1.59610160 -28.26753772 -11.21659022 43.56032653 -11.79296618 40.12751956 -5.23493592 -39.13810787
4061880000 -1.59367299 -28.40480214 -11.22517068 43.38691082 -11.77046336 39.99429611 -5.23125239 -39.23167070
4066870000 -1.59909726 -28.35754205 -11.23414994 43.39391030 -11.77587325 40.14922572 -5.22683126 -39.29154566
4071860000 -1.59030120 -28.49395372 -11.21950876 43.20587428 -11.75508450 40.06590170 -5.25969786 -39.17825512
4076850000 -1.60209679 -28.42810057 -11.21361308 43.44156736 -11.74992355 39.99756624 -5.24549987 -39.30062358
4081840000 -1.59223152 -28.60363568 -11.18525565 43.32450916 -11.74990157 39.97414434 -5.25314593 -39.26377212
4086830000 -1.59446885 -28.65197008 -11.18902182 43.23229869 -11.73669424 39.96400496 -5.24637496 -39.31709452
4091820000 -1.58894663 -28.67703140 -11.17531674 43.11938416 -11.73989525 39.99643547 -5.26908256 -39.28614552
4096810000 -1.58957098 -28.77734989 -11.16367450 43.18954936 -11.74470132 39.93527083 -5.26614395 -39.24547518
4101800000 -1.59154895 -28.75554489 -11.20470546 43.13999422 -11.73175408 39.98303252 -5.26700259 -39.31214255
4106790000 -1.58818004 -28.71794801 -11.15906695 43.11140372 -11.73398933 39.84850029 -5.27071203 -39.40548471
4111780000 -1.58613111 -28.78698700 -11.16879808 43.07492575 -11.73449809 39.82560596 -5.25545550 -39.42840252
4116770000 -1.59382041 -28.79498973 -11.17105799 42.93723847 -11.71225345 39.72428190 -5.26901298 -39.36370175
4121760000 -1.59548378 -28.74721880 -11.17558360 42.86450879 -11.71933390 39.81296236 -5.26209336 -39.34853290
4126750000 -1.59178482 -28.75980237 -11.16632965 43.01523749 -11.73572369 39.69495554 -5.27425528 -39.45839369
4131740000 -1.59161580 -28.74341117 -11.16764895 43.00718272 -11.69374256 39.89018945 -5.27507652 -39.49716708
4136730000 -1.59910068 -28.72262064 -11.15715590 43.01718022 -11.71945359 39.66280675 -5.28869320 -39.51697391
4141720000 -1.60755884 -28.68829589 -11.16249383 42.96855956 -11.70947811 39.66514125 -5.28635479 -39.49977813
4146710000 -1.61698606 -28.69739455 -11.16149225 43.04498691 -11.70805672 39.64390990 -5.29626777 -39.52261469
4151700000 -1.61783129 -28.72373986 -11.13099321 43.03007790 -11.68970730 39.67202427 -5.26877156 -39.57319191
4156690000 -1.62871115 -28.73261018 -11.14543264 42.90318816 -11.68524501 39.78647918 -5.28426056 -39.61340955
4161680000 -1.63471439 -28.81669461 -11.13092200 42.90777698 -11.67900912 39.64382438 -5.30283711 -39.56324130
4166670000 -1.63182512 -28.82964550 -11.13800591 42.84587531 -11.66727136 39.67196767 -5.29120916 -39.60605816
4171660000 -1.64725586 -28.90011896 -11.10856311 42.80541871 -11.64893398 39.63906048 -5.29177513 -39.66339086
4176650000 -1.63144117 -28.92076837 -11.09905255 42.85112238 -11.66181706 39.70446901 -5.30622629 -39.64794968
4181640000 -1.64174206 -28.97074776 -11.13541502 42.84647848 -11.66984653 39.58685695 -5.30847389 -39.70082684
4186630000 -1.64650806 -29.02617557 -11.11383289 42.66108478 -11.65739332 39.59728761 -5.31278394 -39.76103370
4191620000 -1.64198126 -29.12694241 -11.10624734 42.73341218 -11.65235764 39.49622341 -5.30566564 -39.80100083
4196610000 -1.63628220 -29.08510783 -11.11466896 42.78835055 -11.63961740 39.63799350 -5.31398435 -39.67448705
4201600000 -1.64683611 -29.22230566 -11.09194532 42.54560372 -11.63146910 39.57473924 -5.31980653 -39.75592788
4206590000 -1.63859507 -29.18187118 -11.08776200 42.79361576 -11.64576486 39.43815808 -5.33172365 -39.79109556
4211580000 -1.63265980 -29.16288337 -11.09770856 42.60255031 -11.64518972 39.58245897 -5.33783946 -39.86829003
4216570000 -1.63782395 -29.26002283 -11.10053937 42.58369487 -11.64840515 39.32616758 -5.33140894 -39.81609562
4221560000 -1.63314363 -29.19889777 -11.09324482 42.55568619 -11.61297436 39.43344392 -5.32878420 -39.73065355
4226550000 -1.63213268 -29.19928454 -11.08631280 42.58455972 -11.61605390 39.51508005 -5.33980245 -39.83347519
4231540000 -1.64275967 -29.19425746 -11.08992038 42.52864319 -11.62723841 39.48307055 -5.33628139 -39.90387864
4236530000 -1.64257214 -29.19523056 -11.08778826 42.53584371 -11.61446286 39.43486287 -5.33889852 -39.87994065
4241520000 -1.64643469 -29.15276652 -11.07934622 42.42454601 -11.61071422 39.33545114 -5.34461596 -39.92629288
4246510000 -1.65232993 -29.13157659 -11.06275329 42.46002638 -11.60002905 39.43558516 -5.34321633 -39.97024047
4251500000 -1.65678207 -29.12581442 -11.08727991 42.43762193 -11.61728940 39.33704345 -5.35354428 -39.96668267
4256490000 -1.66058358 -29.23019905 -11.06652479 42.35252600 -11.60276648 39.26941175 -5.35415707 -40.05908855
4261480000 -1.68065646 -29.25327312 -11.05849963 42.37045970 -11.59115123 39.41717324 -5.34892760 -39.96696487
4266470000 -1.67549331 -29.20908959 -11.04089721 42.41159324 -11.58416426 39.40946712 -5.34943940 -40.05322072
4271460000 -1.68782670 -29.20895892 -11.04696510 42.37845091 -11.58478578 39.45685662 -5.36416453 -40.00939893
4276450000 -1.68315015 -29.28411643 -11.04211715 42.37799968 -11.56939185 39.30059470 -5.36049692 -40.06376344
4281440000 -1.69008733 -29.31813015 -11.03142293 42.34539226 -11.56569296 39.27165790 -5.35627916 -40.08868884
4286430000 -1.69480381 -29.44156718 -11.03956727 42.31604798 -11.56004578 39.27865800 -5.36038739 -40.09397901
4291420000 -1.68252242 -29.45518216 -11.01807804 42.25165431 -11.55937240 39.26962506 -5.36669003 -40.16484007
4296410000 -1.68228307 -29.47696221 -11.01325220 42.32296210 -11.55560738 39.30288169 -5.37330569 -40.18401790
4301400000 -1.68781097 -29.51869239 -11.02538503 42.25938159 -11.54322393 39.15894593 -5.36577440 -40.15658410
4306390000 -1.68207321 -29.57611569 -11.00668574 42.07111300 -11.54208930 39.09880709 -5.36868103 -40.22392252
4311380000 -1.68182244 -29.58252577 -11.02613708 42.18431875 -11.55636077 39.18060129 -5.38457409 -40.21145419
4316370000 -1.67821805 -29.57470635 -11.01900281 42.02360252 -11.56298246 39.12670814 -5.38978590 -40.21863132
4321360000 -1.68206516 -29.62265169 -11.02662981 42.16803302 -11.55265178 39.15511835 -5.38796869 -40.19759760
4326350000 -1.67474884 -29.57493173 -11.00697384 42.09296852 -11.54143049 39.06753167 -5.39687230 -40.24455500
4331340000 -1.68650594 -29.60095672 -10.99827666 42.10007692 -11.52472177 39.17018535 -5.37857090 -40.33129170
4336330000 -1.68734795 -29.60648840 -10.99431710 41.92456392 -11.51589810 39.01118265 -5.38815996 -40.35694417
4341320000 -1.68016227 -29.59331654 -10.99796402 41.91999562 -11.52229210 39.04049756 -5.40476189 -40.36568890
4346310000 -1.69657979 -29.48642998 -10.99692278 42.03995137 -11.53518415 39.04188424 -5.39134497 -40.38242415
4351300000 -1.69442761 -29.51111685 -10.99710956 42.07049856 -11.50563105 39.13278545 -5.40500360 -40.39820908
4356290000 -1.70289097 -29.58841855 -10.98935025 41.98714386 -11.51302546 38.93088896 -5.39972802 -40.45119659
4361280000 -1.71263455 -29.62826083 -10.99008798 41.90805229 -11.49815345 38.98805529 -5.40441137 -40.50514049
4366270000 -1.71120746 -29.60742194 -10.96788725 41.91658075 -11.48461892 38.96823202 -5.41214070 -40.45451667
4371260000 -1.72094982 -29.61786208 -10.96678244 41.86021024 -11.50364552 38.94724493 -5.41208882 -40.50281200
4376250000 -1.73308302 -29.66119200 -10.98593050 41.77539151 -11.48774462 38.86485796 -5.41546556 -40.58247317
4381240000 -1.71616811 -29.63032429 -10.96039685 41.94016162 -11.48207930 39.06532215 -5.41548895 -40.54602569
4386230000 -1.72717543 -29.72020844 -10.96362717 41.86818402 -11.46815322 39.02109531 -5.40186762 -40.52219371
4391220000 -1.73442363 -29.78578420 -10.96858618 41.82660085 -11.45373324 38.83019050 -5.42171172 -40.49981557
4396210000 -1.74085080 -29.86180794 -10.96186906 41.91235796 -11.47831860 38.95261028 -5.42328844 -40.54020431
4401200000 -1.73411881 -29.85235420 -10.93416127 41.83973669 -11.46449226 38.86662687 -5.41918246 -40.51955118
4406190000 -1.74312295 -29.90921659 -10.94461663 41.83026088 -11.44853294 38.89706182 -5.43426768 -40.51895849
4411180000 -1.73452742 -29.92752545 -10.94736537 41.81363013 -11.43276893 38.87674714 -5.42894864 -40.52288672
4416170000 -1.73068070 -29.98540343 -10.94936482 41.76524834 -11.45909055 38.85072934 -5.44133790 -40.55628751
4421160000 -1.73232412 -29.99182209 -10.92317712 41.67309688 -11.44471840 38.88382356 -5.43707419 -40.59968627
4426150000 -1.73269862 -29.94433183 -10.92886467 41.58221517 -11.45078999 38.86216819 -5.45586188 -40.63996293
4431140000 -1.73185755 -30.02257788 -10.92143581 41.48827404 -11.44335311 38.77149921 -5.45197371 -40.72895702
4436130000 -1.72648124 -30.00111876 -10.91967354 41.66958059 -11.41814144 38.76343749 -5.44776470 -40.68197428
4441120000 -1.73283187 -30.00308463 -10.90926436 41.70790379 -11.41801582 38.77992931 -5.45569953 -40.70486671
4446110000 -1.72740989 -30.01614119 -10.89881538 41.66452924 -11.44204246 38.71728236 -5.45291512 -40.72246002
4451100000 -1.73009039 -29.91750245 -10.90639597 41.56547384 -11.42665037 38.68577322 -5.46120285 -40.77410060
4456090000 -1.73511549 -29.97159203 -10.92837487 41.59057023 -11.42028986 38.81661769 -5.47892450 -40.76311575
4461080000 -1.74261200 -29.96026638 -10.90001503 41.51559351 -11.40501055 38.64216863 -5.45824769 -40.84816054
4466070000 -1.75377307 -29.97061916 -10.90643383 41.47559714 -11.41765963 38.80144959 -5.46097180 -40.87920770
4471060000 -1.75399954 -29.98373401 -10.89989147 41.43285239 -11.40482939 38.72209828 -5.46338104 -40.88391143
4476050000 -1.76214113 -29.95359274 -10.88566860 41.54686649 -11.37190447 38.69482903 -5.47348210 -40.94077566
4481040000 -1.76648866 -30.05685292 -10.88168647 41.35012578 -11.39132959 38.65669168 -5.47806270 -40.84203588
4486030000 -1.77596498 -29.98832535 -10.88551923 41.55173264 -11.39288604 38.73211539 -5.47713339 -40.91407313
4491020000 -1.77466060 -30.06788925 -10.87849591 41.54176536 -11.38762553 38.58291400 -5.48278791 -40.93551991
4496010000 -1.78034480 -30.19997112 -10.87007925 41.48190512 -11.37291808 38.60589368 -5.48145166 -40.90043804
4501000000 -1.78293524 -30.18745180 -10.86468580 41.49643219 -11.36251267 38.70580304 -5.47707598 -40.89436150
4505990000 -1.77602601 -30.27204688 -10.87424526 41.39868580 -11.36275911 38.49754398 -5.48478884 -40.97830179
4510980000 -1.77776944 -30.29664110 -10.86543430 41.36181956 -11.35725045 38.61264325 -5.48317321 -40.96754777
4515970000 -1.77639646 -30.33779449 -10.84762698 41.23716833 -11.36060285 38.52424749 -5.49349315 -40.96832091
4520960000 -1.78243054 -30.34463148 -10.85676390 41.40201554 -11.36429676 38.51743034 -5.49432686 -40.97171085
4525950000 -1.76719434 -30.32239768 -10.84555306 41.43257201 -11.34621913 38.56959957 -5.50694617 -41.01236252
4530940000 -1.76620372 -30.45411664 -10.83191914 41.22199888 -11.34518551 38.50202900 -5.49147281 -41.06252823
4535930000 -1.76838643 -30.42646432 -10.82929908 41.20616473 -11.33183462 38.53609144 -5.50590855 -41.03476475
4540920000 -1.75216523 -30.42354067 -10.83034884 41.03418853 -11.32629405 38.51872406 -5.51157608 -40.99307965
4545910000 -1.77246559 -30.43383773 -10.84136085 41.15407360 -11.34387325 38.50899447 -5.52278305 -41.09170822
4550900000 -1.77140681 -30.43505885 -10.82149235 41.13020940 -11.33039434 38.37015724 -5.51875540 -41.08587484
4555890000 -1.78492057 -30.41831998 -10.83338153 41.11781894 -11.33141021 38.44847234 -5.51303269 -41.16336450
4560880000 -1.78361303 -30.38736395 -10.81359472 41.07161184 -11.30970305 38.32154517 -5.51495007 -41.16207981
4565870000 -1.79737175 -30.43962683 -10.81985318 41.01351379 -11.31257672 38.27832113 -5.52348446 -41.21328126
4570860000 -1.79152435 -30.37427497 -10.83118106 41.09096811 -11.31766657 38.38657039 -5.51135776 -41.19242882
4575850000 -1.79740645 -30.38810486 -10.81066400 41.01758311 -11.29772190 38.32166261 -5.53088409 -41.31058605
4580840000 -1.80206172 -30.41139460 -10.80533593 41.01698554 -11.30014722 38.37974566 -5.52263603 -41.24205249
4585830000 -1.81165177 -30.46968147 -10.79359827 41.03027001 -11.31030356 38.37298874 -5.52226720 -41.27574635
4590820000 -1.81331529 -30.50372993 -10.78718734 40.99708712 -11.27998940 38.35673311 -5.52675692 -41.37187390
4595810000 -1.82835685 -30.50060482 -10.80395417 41.01375948 -11.29609020 38.29547933 -5.53741414 -41.36234308
4600800000 -1.82276466 -30.55050708 -10.78210037 40.98399040 -11.28720892 38.36341506 -5.53211225 -41.33444049
4605790000 -1.82725251 -30.59918893 -10.79173345 40.98948799 -11.28055589 38.29064162 -5.55609502 -41.35635289
4610780000 -1.82514851 -30.63743599 -10.76679916 41.02452334 -11.26766994 38.32242327 -5.54856973 -41.33219605
4615770000 -1.83039674 -30.70328448 -10.78210515 41.02165896 -11.25640071 38.26751554 -5.54148333 -41.34041423
4620760000 -1.82788639 -30.77221957 -10.76920609 40.98551953 -11.25573536 38.26834899 -5.53641612 -41.33570615
4625750000 -1.82469962 -30.78657683 -10.77270767 40.88550778 -11.26272186 38.19454232 -5.55849604 -41.38820984
4630740000 -1.81414634 -30.81334904 -10.75583898 40.79183776 -11.24520574 38.15203163 -5.55681342 -41.43235884
4635730000 -1.82010576 -30.84619431 -10.75286611 40.84314418 -11.24562955 38.07343802 -5.55640939 -41.41468691
4640720000 -1.81536560 -30.85234304 -10.75709737 40.78068331 -11.23866507 38.06680128 -5.55402905 -41.38881212
4645710000 -1.82151062 -30.90900790 -10.74788835 40.67878672 -11.24998245 38.15415235 -5.56365689 -41.50643839
4650700000 -1.81328354 -30.89767097 -10.74736536 40.67188481 -11.23775858 38.08147120 -5.56417247 -41.53804060
4655690000 -1.82250323 -30.87217158 -10.73619933 40.66834141 -11.24889957 38.04157271 -5.57526336 -41.41785984
4660680000 -1.82811083 -30.86513816 -10.76220716 40.59889626 -11.22162412 38.05664891 -5.57719253 -41.47034121
4665670000 -1.83124700 -30.81677148 -10.75581924 40.67676425 -11.22970785 38.09404933 -5.58109955 -41.56517575
4670660000 -1.83766671 -30.82559485 -10.75199934 40.71265863 -11.23312215 38.04658262 -5.56885103 -41.62794344
4675650000 -1.83448360 -30.82789962 -10.75047744 40.62569485 -11.22017870 38.09766640 -5.59345606 -41.63305262
4680640000 -1.84860189 -30.82778241 -10.74336580 40.57814505 -11.21476250 38.03740188 -5.58924803 -41.69993774
4685630000 -1.85133945 -30.82548635 -10.72124222 40.58814623 -11.20648797 38.03237653 -5.59317520 -41.70309084
4690620000 -1.85640698 -30.88331157 -10.71652196 40.49785520 -11.19626733 38.01298797 -5.58392374 -41.68096774
4695610000 -1.85376891 -30.86759865 -10.70802264 40.57737920 -11.18905503 38.02051102 -5.59338573 -41.68330816
4700600000 -1.87274118 -30.98421370 -10.70449889 40.49044094 -11.18603968 38.03597226 -5.58284351 -41.79826697
4705590000 -1.87278436 -31.02811129 -10.71513353 40.64273872 -11.19235336 37.99810598 -5.59572758 -41.72795541
4710580000 -1.86740232 -31.03517399 -10.69890898 40.54973487 -11.18826191 37.97746888 -5.58044554 -41.74331241
4715570000 -1.87395746 -31.10228820 -10.69091425 40.57736312 -11.18797926 37.96456112 -5.58824322 -41.67466496
4720560000 -1.87284711 -31.15178097 -10.68743436 40.41976256 -11.17833755 37.94444360 -5.58689474 -41.68939646
4725550000 -1.87462552 -31.22600577 -10.68156656 40.44621808 -11.17216728 37.91895023 -5.59319589 -41.74169422
4730540000 -1.86752616 -31.21783161 -10.67058072 40.44949499 -11.15442915 37.86427832 -5.60355288 -41.78161446
4735530000 -1.86728879 -31.25374180 -10.68132457 40.33566996 -11.15042809 37.95244219 -5.60161059 -41.76210530
4740520000 -1.87250777 -31.30284313 -10.68229707 40.36996564 -11.14832462 37.85348164 -5.59321033 -41.67658801
4745510000 -1.86575147 -31.32982184 -10.67356909 40.39274730 -11.15355604 37.79737906 -5.61309513 -41.73729853
4750500000 -1.87167158 -31.36789057 -10.67750216 40.29056251 -11.16058054 37.78868946 -5.63140453 -41.76529514
4755490000 -1.87841374 -31.34757502 -10.67489480 40.32533667 -11.14674211 37.72278800 -5.61563009 -41.83868342
4760480000 -1.87031117 -31.34593725 -10.66888121 40.25022130 -11.14668483 37.74225685 -5.63890083 -41.84472897
4765470000 -1.87756086 -31.30991746 -10.64491023 40.26211335 -11.13935662 37.79528587 -5.62361244 -41.80064505
4770460000 -1.88058915 -31.37015734 -10.66927222 40.18689367 -11.13204030 37.66096525 -5.63222354 -41.95647396
4775450000 -1.88161308 -31.32373647 -10.65871580 40.23522392 -11.13217075 37.71920488 -5.63517662 -41.95078334
4780440000 -1.88345108 -31.34074921 -10.65184699 40.22264262 -11.12286586 37.75739380 -5.63322461 -41.95276546
4785430000 -1.89616086 -31.36734806 -10.64209556 40.21779338 -11.11616235 37.67529663 -5.63091655 -42.04416365
4790420000 -1.90279457 -31.32177799 -10.64148142 40.20108415 -11.11791388 37.76782585 -5.62054710 -42.02714566
4795410000 -1.90454887 -31.31520638 -10.63204122 40.09622780 -11.12015871 37.67750719 -5.62300458 -42.05892967
4800400000 -1.90953313 -31.36826608 -10.63431059 40.11235558 -11.11971080 37.66077502 -5.63101572 -42.05846112
4805390000 -1.91751541 -31.40884492 -10.64489640 40.18856928 -11.09433913 37.64240666 -5.63867713 -42.09855831
4810380000 -1.92345255 -31.46047354 -10.63337473 40.19296610 -11.10140735 37.66075316 -5.63833140 -42.05489964
4815370000 -1.92750153 -31.51389600 -10.62242198 40.12593245 -11.09491037 37.60498246 -5.63347035 -42.01605191
4820360000 -1.92989440 -31.62004489 -10.62622991 40.07607853 -11.08578377 37.63648676 -5.63524087 -42.09426526
4825350000 -1.92870725 -31.60075956 -10.62701738 40.00727408 -11.09634011 37.55899854 -5.62861678 -42.03169124
4830340000 -1.91788961 -31.59042239 -10.60550104 39.98574079 -11.07888349 37.67303612 -5.63472520 -42.01238655
4835330000 -1.92672489 -31.67496755 -10.60508254 40.04517059 -11.06563090 37.57100900 -5.64581040 -42.14293439
4840320000 -1.92649790 -31.69876841 -10.59753254 40.00248939 -11.07865956 37.52333386 -5.64582192 -42.07199449
4845310000 -1.92930413 -31.77119791 -10.60559513 39.88126825 -11.07518030 37.51500458 -5.65851008 -42.09991035
4850300000 -1.92658108 -31.75220821 -10.60018836 39.85350451 -11.05395246 37.45865471 -5.66498340 -42.13814746
4855290000 -1.91297586 -31.76452595 -10.58570721 39.88831534 -11.03521232 37.45266352 -5.66098419 -42.12618738
4860280000 -1.92415495 -31.82770179 -10.57994468 39.84157954 -11.04466967 37.37449702 -5.66819924 -42.20370337
4865270000 -1.92410554 -31.80133533 -10.58194154 39.82460839 -11.05785887 37.41163893 -5.65695079 -42.19185378
4870260000 -1.92967058 -31.86202307 -10.58367365 39.74580835 -11.05095149 37.42150277 -5.67285523 -42.22154889
4875250000 -1.93324132 -31.85800897 -10.57826048 39.79259601 -11.03623094 37.28069131 -5.66617465 -42.22800405
4880240000 -1.93014186 -31.76501954 -10.58491760 39.74237018 -11.05225200 37.33011846 -5.67264488 -42.34770953
4885230000 -1.93678795 -31.79313284 -10.57698613 39.74331323 -11.03903860 37.35541186 -5.68485120 -42.31375903
4890220000 -1.94358550 -31.82548948 -10.56478423 39.75428467 -11.03592932 37.37437841 -5.68240353 -42.38888052
4895210000 -1.94740283 -31.78315760 -10.57987042 39.68358404 -11.03876049 37.33357836 -5.68505138 -42.44047816
4900200000 -1.94972580 -31.83905943 -10.55509249 39.72127883 -11.03345190 37.30505181 -5.67185580 -42.35907813
4905190000 -1.95425520 -31.86430363 -10.55974967 39.65293105 -11.01494239 37.37422018 -5.67838842 -42.41504174
4910180000 -1.97179253 -31.88883989 -10.56176894 39.71195416 -11.02001438 37.34593098 -5.68538344 -42.39302918
4915170000 -1.96923427 -31.95029646 -10.54573926 39.74192647 -11.01016394 37.28569096 -5.67870486 -42.55041343
4920160000 -1.96750301 -32.01221020 -10.54852425 39.59353555 -10.99386385 37.26921951 -5.68407523 -42.33370174
4925150000 -1.97145536 -32.00810959 -10.53935264 39.61978343 -11.00517564 37.28076998 -5.67821402 -42.45552761
4930140000 -1.97721293 -32.12908793 -10.53258936 39.56650036 -11.01102230 37.24765078 -5.68938333 -42.44998729
4935130000 -1.97770916 -32.09607095 -10.53871547 39.53345705 -10.99519846 37.21923747 -5.70574811 -42.45633259
4940120000 -1.97011442 -32.13699587 -10.52229213 39.59062860 -10.99280830 37.17154282 -5.69296207 -42.51060092
4945110000 -1.97936537 -32.22560945 -10.53624789 39.46473776 -10.99698848 37.24334841 -5.69150695 -42.47386784
4950100000 -1.97409483 -32.20375170 -10.51750308 39.49658530 -10.97431299 37.15497427 -5.68183083 -42.50858530
4955090000 -1.97637816 -32.26409210 -10.52746161 39.40861597 -10.98632933 37.11915014 -5.70678010 -42.55623987
4960080000 -1.97605165 -32.32496486 -10.52188223 39.48352772 -10.98344583 37.10809417 -5.71874367 -42.54185680
4965070000 -1.97227267 -32.30152065 -10.51711246 39.44823470 -10.97045022 37.13632958 -5.70688886 -42.53978782
4970060000 -1.97542854 -32.37105137 -10.50541752 39.38439582 -10.95489716 37.05187646 -5.71033418 -42.56029069
4975050000 -1.97687281 -32.33237328 -10.49887225 39.40899280 -10.96468188 36.99524731 -5.71415107 -42.60980845
4980040000 -1.96745898 -32.35109246 -10.50303153 39.29700492 -10.96641163 37.05959519 -5.72197903 -42.65545756
4985030000 -1.98079079 -32.34895309 -10.50340009 39.42052488 -10.96502919 36.98697195 -5.72257504 -42.61726461
4990020000 -1.98792093 -32.30026791 -10.50449502 39.28348205 -10.95904538 37.03456214 -5.71888460 -42.73358130
4995010000 -1.99660053 -32.33722344 -10.50302442 39.33989173 -10.95141275 36.99253389 -5.72168090 -42.73543776
5000000000 -1.99240098 -32.34658073 -10.50188354 39.29145719 -10.94991884 36.97636720 -5.71821543 -42.73553568