! Forward-simulated: Re-embedded (raw/measured) — deemb_preext_vce3.5_ib240u.s2p
!   source_deembedded_file = deemb_preext_vce3.5_ib240u.s2p
!   Cpbe_fF = 22.0
!   Cpce_fF = 18.0
!   Cpbc_fF = 5.0
!   Lb_pH = 45.0
!   Lc_pH = 42.0
!   Le_pH = 6.0
!   Rpb_ohm = 0.0
!   Rpc_ohm = 0.0
!   Rpe_ohm = 0.0
# Hz S DB R 50
10000000 -0.05393386 -0.16441820 -1.39856339 173.40655054 -52.38506626 -29.95326505 0.72029813 -1.75939062
14990000 -0.19334535 -0.19285681 -1.53207872 172.51821227 -42.36756601 45.51592346 0.71050176 -3.00715906
19980000 -0.18522589 -0.50998879 -1.63758884 170.53574286 -45.55733999 54.89634122 0.68567941 -4.20245886
24970000 -0.18276629 -0.49620653 -1.69757916 169.21058868 -42.08596334 67.06487668 0.67314637 -5.10977331
29960000 -0.16949052 -0.56305841 -1.80889633 167.10086964 -41.57434064 68.37988286 0.62443709 -6.24062038
34950000 -0.17764132 -0.73454661 -1.89045993 165.34087747 -40.31108550 69.72816237 0.57653081 -7.15267836
39940000 -0.17163038 -0.76482998 -1.96604820 163.70539057 -39.13584089 70.00206934 0.52663187 -7.95713448
44930000 -0.17770106 -0.82681767 -2.03946960 162.14978947 -37.72981604 67.64505161 0.47008177 -8.82055940
49920000 -0.18671137 -0.88323174 -2.17257936 160.48663408 -37.25635989 67.24765977 0.40797191 -9.85425450
54910000 -0.17496711 -0.99803635 -2.27729002 159.16077088 -36.74606617 63.80575748 0.33833936 -10.54132799
59900000 -0.19273963 -1.04669811 -2.41539893 157.42331989 -35.69357066 68.11302366 0.27550326 -11.46810405
64890000 -0.20766068 -1.18280155 -2.54028409 155.89780426 -34.76430066 66.45590379 0.18027049 -12.04997223
69880000 -0.19477626 -1.40147517 -2.63386617 154.65663369 -34.54560961 65.85696245 0.11680289 -12.77268676
74870000 -0.19382507 -1.52838025 -2.72738252 153.19662629 -33.76509933 66.38613957 0.06011105 -13.29845154
79860000 -0.23085159 -1.58427197 -2.92019554 151.74027682 -33.87268669 64.85338226 -0.04493297 -14.06264667
84850000 -0.24081761 -1.68831227 -3.10046139 150.61339672 -33.27597556 63.73733955 -0.11260741 -14.67693143
89840000 -0.24559801 -1.69478704 -3.26471303 149.39252753 -32.86279157 65.00697609 -0.22103611 -15.17289669
94830000 -0.25345307 -1.82035882 -3.43424917 148.26042182 -32.28988717 61.91996132 -0.30077259 -16.16237796
99820000 -0.26362713 -1.91110062 -3.57808364 146.96437241 -32.07439279 62.75503319 -0.38232332 -16.64752964
104810000 -0.26927782 -1.96591855 -3.74824671 145.81817360 -31.48073525 61.98522293 -0.46336874 -16.96572576
109800000 -0.28570318 -1.90206723 -3.89292575 144.84324190 -31.34441332 61.75169391 -0.54829484 -17.38684736
114790000 -0.27949381 -2.02108639 -4.02032960 143.72709646 -31.26946415 61.90811045 -0.62418846 -17.81080093
119780000 -0.28313472 -2.09196265 -4.17242283 142.85655787 -30.88836593 60.83211728 -0.68274136 -18.02763987
124770000 -0.28037859 -2.05912897 -4.29506012 141.75303004 -30.71827174 59.49629806 -0.75285441 -18.39192153
129760000 -0.28158426 -2.13185663 -4.40541297 140.82436242 -30.27267823 59.94853390 -0.83622098 -18.71386698
134750000 -0.28615571 -2.15865759 -4.53081735 139.89614733 -30.18738557 59.83883652 -0.91608632 -19.15154132
139740000 -0.28369730 -2.19152022 -4.65984399 138.91189954 -29.93165158 58.25152585 -0.99426318 -19.60515577
144730000 -0.27832431 -2.22562782 -4.76432742 138.00655477 -29.73306390 58.07945061 -1.07372823 -19.86647884
149720000 -0.28373270 -2.27951625 -4.89638030 137.02302960 -29.58204048 57.76966250 -1.16700234 -20.44486756
154710000 -0.29154001 -2.30341784 -5.00172660 136.15182930 -29.53532604 56.96162400 -1.29068341 -21.01266508
159700000 -0.28536159 -2.31117931 -5.14376117 135.44915855 -29.23732746 56.60549394 -1.36311586 -21.18900170
164690000 -0.28286819 -2.43248224 -5.25516901 134.50822691 -29.12423501 56.64214523 -1.43705879 -21.29184584
169680000 -0.29271430 -2.44781913 -5.38040581 133.78045662 -28.95951253 56.46350991 -1.50392387 -21.50481824
174670000 -0.29429055 -2.52284959 -5.50717842 132.91489302 -28.75698264 55.62393702 -1.62327402 -22.11276951
179660000 -0.30698608 -2.62829187 -5.61748793 132.28570595 -28.69960620 55.95731182 -1.70097362 -22.36286338
184650000 -0.31680768 -2.74925905 -5.71440633 131.48251840 -28.45731762 54.83152769 -1.77677683 -22.45086954
189640000 -0.32685742 -2.72676706 -5.81727953 130.75217565 -28.41533100 55.19328828 -1.85398640 -22.79952806
194630000 -0.34120832 -2.79044481 -5.92218645 130.04485166 -28.24157978 54.56567452 -1.94885195 -22.81121411
199620000 -0.35519379 -2.78758742 -6.04306860 129.32412526 -28.19946061 54.53588104 -2.01920827 -23.20802066
204610000 -0.37194096 -2.67767299 -6.15985938 128.89620673 -28.19155473 54.08978655 -2.09341740 -23.13474094
209600000 -0.33616485 -2.88841826 -6.25374938 128.14800481 -28.08849727 54.34796171 -2.18228875 -23.26558025
214590000 -0.35904720 -3.09651685 -6.36415357 127.39562210 -27.93755671 53.59663110 -2.24078912 -23.08913340
219580000 -0.36010840 -3.05797028 -6.41609769 126.62759783 -27.68240453 53.59709683 -2.23362378 -23.17299446
224570000 -0.38726569 -3.00266807 -6.60684895 125.85879407 -27.81257525 53.60345359 -2.31259267 -23.62336739
229560000 -0.36223606 -2.92974131 -6.70231044 125.53227046 -27.62162614 53.21269446 -2.37856253 -23.68608206
234550000 -0.35642114 -2.91638685 -6.81284176 125.03757367 -27.57192976 53.52306075 -2.44210739 -23.69976281
239540000 -0.36114417 -2.94015936 -6.91056617 124.60911490 -27.48409665 53.23690370 -2.49482140 -23.83424891
244530000 -0.33968665 -3.03629890 -6.98265673 123.90477552 -27.34943119 52.17415446 -2.56312342 -23.95455101
249520000 -0.32240556 -3.05085294 -7.06951509 123.58931612 -27.17326618 52.93957656 -2.62482973 -23.94182741
254510000 -0.34295375 -3.03430970 -7.19687451 123.07999011 -27.08099464 54.59368033 -2.66157187 -23.82183574
259500000 -0.33657705 -3.01690397 -7.29074240 122.42141981 -27.03057935 52.59659304 -2.73127307 -23.96737741
264490000 -0.35627981 -2.94322960 -7.36421995 122.14429957 -26.99622235 51.96083128 -2.77828027 -24.11722369
269480000 -0.31964117 -3.22507054 -7.46492393 121.58275444 -26.92208002 52.23574349 -2.85273985 -24.23348338
274470000 -0.33990099 -3.24132421 -7.54654079 121.04177671 -26.62404757 52.84377930 -2.89711440 -24.29576644
279460000 -0.33868380 -3.30827169 -7.65211652 120.65784744 -26.66783685 51.91961279 -2.94926592 -24.23193457
284450000 -0.32609367 -3.24449073 -7.69173231 120.20056930 -26.68401104 52.31504473 -3.00669938 -24.33453395
289440000 -0.33818108 -3.45908259 -7.78866651 119.51129397 -26.44762179 51.51880827 -3.05272441 -24.38049829
294430000 -0.36823040 -3.49933233 -7.88405119 119.06519647 -26.48987524 51.88874303 -3.13074581 -24.35813934
299420000 -0.36399593 -3.58068912 -7.95057795 118.46494015 -26.65153148 51.92667686 -3.18256145 -24.46665630
304410000 -0.35959360 -3.74895407 -8.01638062 118.17032228 -26.46994945 51.34292052 -3.22058070 -24.56192759
309400000 -0.38173935 -3.89656121 -8.11932142 117.48836769 -26.29454275 51.51554187 -3.28910483 -24.42612686
314390000 -0.41022195 -3.84883171 -8.17913828 117.09719613 -26.25537186 51.86577391 -3.33380790 -24.50581081
319380000 -0.41511517 -3.88060553 -8.27062816 116.50179128 -26.10761477 51.35708953 -3.36225533 -24.49356434
324370000 -0.39323040 -3.77964930 -8.34779248 116.33628645 -26.13180814 52.64994246 -3.38511921 -24.43486438
329360000 -0.39968853 -3.75141980 -8.46409352 115.75945286 -26.00305391 51.72913816 -3.42467622 -24.35895008
334350000 -0.41780133 -3.81941913 -8.55354131 115.42972015 -26.03813585 51.13565298 -3.47899248 -24.51551214
339340000 -0.39918725 -3.77392904 -8.61027055 115.15792785 -25.99390669 51.69139912 -3.50980041 -24.60639482
344330000 -0.39484472 -3.72446014 -8.69750678 114.77270050 -25.94468488 51.51797775 -3.56488646 -24.59017987
349320000 -0.36086692 -3.60507269 -8.74733759 114.71770637 -25.82343617 51.73972162 -3.58765975 -24.49568189
354310000 -0.36820841 -3.82629442 -8.82692436 114.23049232 -25.77968127 51.31849031 -3.61080205 -24.48636127
359300000 -0.36043519 -3.69931345 -8.86887156 114.03394722 -25.66477389 51.53455765 -3.65061388 -24.48522077
364290000 -0.33923036 -3.76980292 -8.93009047 113.60972683 -25.60404073 51.90824866 -3.68480807 -24.46334618
369280000 -0.34130157 -3.89605366 -8.98805905 113.16024150 -25.50550066 52.19534342 -3.72295766 -24.47944867
374270000 -0.32833737 -3.90186872 -9.04826404 112.77033845 -25.47410498 51.43818984 -3.76196792 -24.47615078
379260000 -0.32347633 -4.01213921 -9.10796665 112.42716576 -25.45959029 52.06678278 -3.80364902 -24.45337789
384250000 -0.32652046 -4.07904637 -9.16356955 112.09353291 -25.34098976 51.16283785 -3.82517790 -24.43143011
389240000 -0.32784072 -4.11372507 -9.21943342 111.67964529 -25.30068730 51.83400871 -3.86474185 -24.45876378
394230000 -0.33847028 -4.25061293 -9.31285455 111.23858111 -25.27854574 52.07372930 -3.90377735 -24.34632953
399220000 -0.33591788 -4.38854003 -9.33899862 110.88299811 -25.21777754 51.56310420 -3.92846677 -24.34451139
404210000 -0.34517586 -4.45249599 -9.39278720 110.49667689 -25.13268753 51.63585898 -3.96419379 -24.38872781
409200000 -0.36664945 -4.57027956 -9.46178830 110.02098723 -25.13129460 51.63753227 -4.00536440 -24.45419934
414190000 -0.36649669 -4.69982037 -9.53547998 109.79549296 -25.06707202 51.73668488 -4.02269024 -24.30940346
419180000 -0.37880287 -4.76127830 -9.58625130 109.41538328 -24.96486361 51.70452525 -4.06352898 -24.28383626
424170000 -0.39162992 -4.92174290 -9.65627172 108.99480261 -24.92552756 51.54563244 -4.08861992 -24.28150322
429160000 -0.40971917 -4.90235330 -9.71875160 108.75657922 -24.90747143 51.54308936 -4.11526877 -24.30936782
434150000 -0.42847476 -4.81779892 -9.79232478 108.37530086 -24.84325145 51.37435689 -4.14240702 -24.31874551
439140000 -0.44053588 -4.68335437 -9.85508762 108.23225716 -24.87702817 52.24650022 -4.15513987 -24.30786655
444130000 -0.43180966 -4.62211050 -9.92370327 107.88931530 -24.79800632 51.86659857 -4.18265166 -24.13774630
449120000 -0.41272802 -4.57559172 -9.99332975 107.65367471 -24.74212932 51.70730520 -4.20004898 -24.21998444
454110000 -0.39941200 -4.51553324 -10.06174168 107.49296163 -24.69397600 52.15423061 -4.22399534 -24.11218302
459100000 -0.36910116 -4.43410353 -10.07889121 107.41146192 -24.61688942 51.94956419 -4.26373077 -24.21413438
464090000 -0.35483002 -4.45890098 -10.12031814 107.12291432 -24.61830748 52.54538577 -4.28364947 -24.16128345
469080000 -0.33438743 -4.54967815 -10.15264183 106.88162799 -24.48947082 52.52775432 -4.29012165 -24.01442065
474070000 -0.32192031 -4.61319375 -10.18876283 106.52344504 -24.45869826 52.18990191 -4.30749241 -24.02219479
479060000 -0.30427410 -4.66694208 -10.21243148 106.29620671 -24.33355820 52.33619995 -4.30224888 -23.95666082
484050000 -0.30367120 -4.73081337 -10.24803333 105.86877057 -24.29598333 52.48448929 -4.32781677 -23.82298002
489040000 -0.31165950 -4.91862745 -10.30555077 105.52032703 -24.20454109 52.30276520 -4.34330616 -23.83369579
494030000 -0.30568926 -5.02219916 -10.35003509 105.28732593 -24.21630113 52.15173102 -4.38663021 -23.86199069
499020000 -0.31647806 -5.07078330 -10.39103967 104.93270786 -24.11287986 52.35836889 -4.40176096 -23.74753094
504010000 -0.31206273 -5.09210021 -10.42004436 104.65428700 -24.08113063 52.51888064 -4.42468242 -23.76078411
509000000 -0.33009410 -5.30715605 -10.48989025 104.28353101 -24.12588979 52.32839757 -4.43284459 -23.56893910
513990000 -0.34096196 -5.37155264 -10.56371540 104.09397768 -24.06607602 52.27235035 -4.45169162 -23.60663982
518980000 -0.35274177 -5.44609409 -10.60110334 103.65828408 -23.94412759 52.73384037 -4.47511309 -23.60456249
523970000 -0.35305241 -5.64320760 -10.62167818 103.11921593 -23.94099596 52.95484579 -4.49604380 -23.74081351
528960000 -0.37666784 -5.72863870 -10.65491089 103.04509640 -23.88125914 52.44638286 -4.53133329 -23.75299792
533950000 -0.40646116 -5.87103779 -10.75331423 102.71348688 -23.81520750 52.23468861 -4.56783919 -23.69744328
538940000 -0.40746853 -5.90684497 -10.78745502 102.44545378 -23.78344338 51.81900256 -4.57199046 -23.56933920
543930000 -0.44149102 -5.76808034 -10.90405946 102.18838346 -23.73786701 52.41724125 -4.58234365 -23.60760039
548920000 -0.45177057 -5.57225238 -10.91702298 102.06739503 -23.73149131 52.55934933 -4.58383054 -23.61135098
553910000 -0.44256925 -5.48700264 -10.97052928 101.94802775 -23.66967134 52.99826978 -4.59246040 -23.54663332
558900000 -0.41932064 -5.31814863 -11.00913813 101.72750298 -23.64344129 52.51324042 -4.62412090 -23.53137327
563890000 -0.39812434 -5.31445101 -11.05362463 101.57026406 -23.62336461 52.53727112 -4.62351025 -23.52849681
568880000 -0.36280259 -5.15525679 -11.04662267 101.61166252 -23.58582971 53.12913214 -4.63280941 -23.48068976
573870000 -0.33124541 -5.28831087 -11.09048016 101.28025940 -23.44622028 52.88517870 -4.66965864 -23.40943605
578860000 -0.31399163 -5.36699594 -11.09985500 101.06968192 -23.46690705 53.08705806 -4.68825719 -23.41621221
583850000 -0.30490173 -5.44283069 -11.13569354 100.69473907 -23.35306004 53.03662510 -4.70847772 -23.42545657
588840000 -0.28908063 -5.71163750 -11.13303818 100.39094948 -23.34769490 52.87611601 -4.71738360 -23.31367679
593830000 -0.27852365 -5.52971211 -11.16659816 100.36223708 -23.33083192 53.12594204 -4.75282222 -23.39427659
598820000 -0.29009375 -5.79220377 -11.21358219 100.09936300 -23.24217795 53.05220164 -4.76291044 -23.26620501
603810000 -0.29808295 -5.86446501 -11.23768220 99.98713557 -23.19969169 52.64346711 -4.78037266 -23.33115439
608800000 -0.30510289 -6.01143090 -11.28227407 99.47045736 -23.12337255 52.75092654 -4.80921191 -23.24884912
613790000 -0.31443666 -6.07083678 -11.31252728 99.20678596 -23.12280689 53.04844535 -4.80957988 -23.22732032
618780000 -0.31544710 -6.30678286 -11.33837004 98.80131182 -23.12293687 52.71476664 -4.83623950 -23.24254075
623770000 -0.32266181 -6.46609318 -11.36674654 98.47971107 -23.00328609 53.19738106 -4.85073269 -23.29710118
628760000 -0.33994026 -6.49835037 -11.43829511 98.26345804 -23.04968914 53.01399066 -4.88406921 -23.37745641
633750000 -0.33870260 -6.58450030 -11.46778754 98.03181165 -22.99939753 53.23612523 -4.87258885 -23.29158570
638740000 -0.37546930 -6.65419245 -11.51194269 97.81198452 -22.91435672 52.90717838 -4.88975747 -23.34850624
643730000 -0.38595958 -6.80804224 -11.56758285 97.54273243 -22.89568260 53.15681410 -4.89259473 -23.30707426
648720000 -0.41345483 -6.77549796 -11.60374939 97.39588464 -22.82158974 53.30844717 -4.90358770 -23.28993364
653710000 -0.44804018 -6.77210167 -11.65837614 97.08495575 -22.87130599 53.13923205 -4.91689048 -23.25412022
658700000 -0.45292879 -6.59510758 -11.69481774 96.97434094 -22.84777482 53.38032673 -4.90388727 -23.20647688
663690000 -0.44975378 -6.41834651 -11.72600368 97.02911165 -22.79856578 53.65323493 -4.91693643 -23.19748282
668680000 -0.43268481 -6.21395735 -11.74793634 96.85846820 -22.72006193 53.86510436 -4.92397144 -23.24001344
673670000 -0.41227665 -6.09881464 -11.76453941 96.64948965 -22.66120873 53.61694709 -4.92486553 -23.21206281
678660000 -0.38782287 -6.13914319 -11.77603367 96.46044275 -22.61939792 53.91229098 -4.94862460 -23.19355483
683650000 -0.34850956 -6.16274399 -11.77972274 96.32285917 -22.59601189 53.95775529 -4.95816421 -23.24953134
688640000 -0.32209851 -6.18213621 -11.78572989 96.15149117 -22.52513989 53.65040004 -4.96294360 -23.20225698
693630000 -0.31968288 -6.30736412 -11.82440857 96.03207219 -22.48786347 53.77275731 -4.98429427 -23.14776716
698620000 -0.30577601 -6.31008589 -11.81474595 95.78684737 -22.41564799 53.87317604 -4.98810670 -23.10673528
703610000 -0.29545637 -6.44897399 -11.84671082 95.49305931 -22.36603000 53.96110623 -5.00630175 -23.11962917
708600000 -0.29078713 -6.58843089 -11.85355030 95.15931439 -22.32175186 53.84483710 -5.01524150 -23.09568384
713590000 -0.30119187 -6.72641564 -11.88107132 94.95627554 -22.30584432 53.96908594 -5.03711711 -23.11689197
718580000 -0.29915887 -6.93775261 -11.91851919 94.53138623 -22.30084351 53.80543480 -5.05659793 -23.11475800
723570000 -0.30792934 -6.99755149 -11.92776963 94.50004832 -22.23565280 53.89404977 -5.07945382 -23.07723780
728560000 -0.31271112 -7.15652928 -11.98685738 94.30549947 -22.23247518 54.05131150 -5.08160012 -23.06560513
733550000 -0.32967938 -7.32435458 -12.02039958 93.82564587 -22.14151033 53.69951723 -5.10470234 -23.10890607
738540000 -0.35157626 -7.41217379 -12.05114195 93.67808120 -22.10866255 53.54372111 -5.10674935 -23.10097720
743530000 -0.36822727 -7.49952976 -12.08732980 93.54282019 -22.11625585 53.78918968 -5.11907446 -23.13425383
748520000 -0.38144474 -7.62982684 -12.12293627 93.40209664 -22.05231825 53.78908438 -5.13356173 -23.12104919
753510000 -0.39376957 -7.70616187 -12.13885033 93.08252929 -22.02893139 53.68333195 -5.11708198 -23.10508547
758500000 -0.42866340 -7.66847512 -12.18372184 92.88133712 -22.02283785 53.82613747 -5.12208502 -23.16401958
763490000 -0.45550465 -7.68663597 -12.22542667 92.81808859 -21.97337981 54.14564954 -5.12165913 -23.09664049
768480000 -0.47870817 -7.61495997 -12.27654311 92.66445842 -21.99704022 53.75353883 -5.15666076 -23.09920454
773470000 -0.46099103 -7.35542960 -12.25141156 92.65631959 -21.96892887 54.05260496 -5.16867221 -23.16025329
778460000 -0.44323114 -7.16715290 -12.28966993 92.51651914 -21.91431060 54.32009837 -5.17394296 -23.18563120
783450000 -0.41885947 -7.04941082 -12.26903876 92.46647982 -21.89727978 54.30523710 -5.16089320 -23.20550836
788440000 -0.39670347 -7.05317023 -12.29070802 92.41598625 -21.82005337 54.00408236 -5.16543621 -23.13287975
793430000 -0.37421170 -7.07621647 -12.31618535 92.22169228 -21.72532931 54.49941250 -5.20192327 -23.14929619
798420000 -0.34536562 -7.16068566 -12.29750865 92.01708376 -21.70413458 54.44296995 -5.20977406 -23.11204940
803410000 -0.34257833 -7.32296186 -12.33866568 91.65667475 -21.66051238 54.33307955 -5.19623568 -23.11803737
808400000 -0.33522371 -7.38604390 -12.33725153 91.45319854 -21.70400898 54.02248354 -5.27556540 -23.21969025
813390000 -0.34667729 -7.50469106 -12.37720661 91.08740074 -21.58260780 54.12656068 -5.28428813 -23.19448235
818380000 -0.33176891 -7.68935334 -12.38023830 90.83140073 -21.60094821 54.29727249 -5.28778376 -23.20518074
823370000 -0.33553971 -7.73375498 -12.40282151 90.70667081 -21.52962730 54.50087714 -5.30651343 -23.25432066
828360000 -0.34830796 -7.89682964 -12.42443035 90.53633200 -21.48846029 54.12837888 -5.32292460 -23.18680875
833350000 -0.35965964 -8.02573283 -12.44056942 90.26333823 -21.45884888 54.14794287 -5.33233685 -23.08933822
838340000 -0.36383761 -8.11112419 -12.45264836 90.15981384 -21.47757729 54.16907316 -5.33103649 -23.15092865
843330000 -0.37430737 -8.18765801 -12.48532628 89.90546900 -21.42092036 54.53813815 -5.34635835 -23.19125281
848320000 -0.38377191 -8.35392613 -12.51788586 89.76919787 -21.40758072 54.06486778 -5.36031770 -23.20871600
853310000 -0.40579668 -8.44746321 -12.54797010 89.56624412 -21.37391646 54.01508682 -5.35779237 -23.20559418
858300000 -0.40660427 -8.57051612 -12.54905930 89.43520484 -21.33579728 53.95917430 -5.38502074 -23.28369073
863290000 -0.43067930 -8.69960490 -12.58703165 89.25473596 -21.35936433 54.05968052 -5.39311230 -23.26225380
868280000 -0.45459562 -8.70452063 -12.62798637 89.01635001 -21.29948930 53.89575109 -5.39098258 -23.26876395
873270000 -0.48466036 -8.67370909 -12.62367339 88.79735293 -21.27774096 54.36488600 -5.38822511 -23.29796572
878260000 -0.49039320 -8.49080226 -12.65757277 88.88195376 -21.21095280 54.36972172 -5.39709592 -23.35169239
883250000 -0.49626030 -8.33147909 -12.69641314 88.86539702 -21.21865447 54.72717235 -5.38202354 -23.27189341
888240000 -0.48099542 -8.14681455 -12.69848059 88.77494696 -21.15803859 54.75264717 -5.40361817 -23.27903598
893230000 -0.44288297 -8.01759636 -12.67743860 88.73889580 -21.15730183 54.48265204 -5.40716383 -23.33134725
898220000 -0.42230715 -7.97161734 -12.68944062 88.65002690 -21.08465783 54.98175432 -5.41216653 -23.22136881
903210000 -0.39115562 -8.00475990 -12.70176982 88.38625557 -21.02107647 54.52019800 -5.42034855 -23.28767816
908200000 -0.37915384 -8.10388654 -12.69402909 88.24904034 -20.95850899 54.88302276 -5.44126447 -23.32763117
913190000 -0.36559320 -8.20431274 -12.67234385 88.09325654 -20.91431760 54.87853009 -5.43389607 -23.26076383
918180000 -0.36740609 -8.30843568 -12.69803253 87.73780226 -20.89527584 54.45821377 -5.45030414 -23.22543934
923170000 -0.36995602 -8.36620847 -12.71844470 87.56835479 -20.88808292 54.67605030 -5.46527152 -23.14436752
928160000 -0.38487450 -8.56241799 -12.75116571 87.19976471 -20.84320550 54.58208872 -5.46788572 -23.23415940
933150000 -0.37275638 -8.65215781 -12.76214556 87.03509823 -20.82735120 54.42203653 -5.48722470 -23.28309415
938140000 -0.39326563 -8.74025490 -12.78291468 86.76927303 -20.78719029 54.48740891 -5.50495673 -23.29895428
943130000 -0.41033043 -8.83106357 -12.78324909 86.70084879 -20.76054971 54.38351784 -5.51246509 -23.37300305
948120000 -0.41855328 -8.93780548 -12.83337802 86.48256316 -20.73427202 54.53261808 -5.53167309 -23.39582494
953110000 -0.42055128 -9.06874620 -12.84406219 86.27397447 -20.72699510 54.30149081 -5.51705218 -23.39006701
958100000 -0.44365992 -9.19405019 -12.85778703 86.27586962 -20.69975973 54.23073415 -5.50596023 -23.37268258
963090000 -0.44484545 -9.29566618 -12.84917372 86.19357247 -20.64154302 54.37835536 -5.50263033 -23.40484946
968080000 -0.46101152 -9.33029768 -12.89398589 86.03357044 -20.62152927 54.49242850 -5.46588502 -23.36116509
973070000 -0.48845776 -9.32855085 -12.92784525 85.94735803 -20.62867532 54.50265742 -5.48237231 -23.35667242
978060000 -0.49138128 -9.50743621 -12.92569786 85.66897028 -20.58709675 54.50611931 -5.46091590 -23.39110922
983050000 -0.50926408 -9.48789012 -12.92856071 85.50141489 -20.55825379 54.59376009 -5.46172749 -23.41574324
988040000 -0.53101253 -9.38289289 -12.94167564 85.42867937 -20.45809551 54.77157286 -5.44370512 -23.42087146
993030000 -0.53689938 -9.22252990 -12.96986046 85.48178690 -20.50587103 54.84151360 -5.45738013 -23.38599398
998020000 -0.53221089 -9.03768393 -12.98649397 85.47186271 -20.41805550 55.08572085 -5.44495690 -23.44534903
1003010000 -0.50682217 -8.88121942 -12.97947773 85.46202869 -20.40537651 54.79942252 -5.47712904 -23.46149004
1008000000 -0.49026243 -8.81491375 -12.97144506 85.24780224 -20.36696529 55.07760904 -5.49305796 -23.48491672
1012990000 -0.46117425 -8.82198157 -12.95552392 85.33345663 -20.32590517 54.88068605 -5.48885320 -23.50062333
1017980000 -0.43255340 -8.98587033 -12.96636060 84.83143398 -20.29052995 54.85012604 -5.49413155 -23.51903126
1022970000 -0.42937742 -9.01015417 -12.96480877 84.77003265 -20.22891899 54.65358618 -5.50835245 -23.49796787
1027960000 -0.43192499 -9.16253092 -12.96964802 84.49755933 -20.19624961 54.79803894 -5.52032060 -23.49967747
1032950000 -0.43191671 -9.21165258 -12.96297953 84.41110878 -20.19271849 54.56384600 -5.54105744 -23.44301090
1037940000 -0.44394960 -9.31208097 -12.99388257 84.09538805 -20.17877969 54.64671249 -5.55443567 -23.54474492
1042930000 -0.45809353 -9.41585620 -13.01303115 83.90551399 -20.15391662 54.60400847 -5.55484611 -23.52718076
1047920000 -0.47253378 -9.54114562 -13.04228593 83.71508009 -20.11388793 54.60860771 -5.55956303 -23.55474123
1052910000 -0.47519423 -9.66608213 -13.05688895 83.56510241 -20.09818480 54.57068795 -5.57921387 -23.61614670
1057900000 -0.49467985 -9.76136650 -13.07184828 83.46965306 -20.09625115 54.57474808 -5.58077559 -23.55607167
1062890000 -0.50045795 -9.86987750 -13.09391081 83.37626051 -20.08610814 54.60462094 -5.58803077 -23.56996486
1067880000 -0.50947511 -9.94381033 -13.11533839 83.22997468 -20.04055757 54.62372656 -5.58448822 -23.64010119
1072870000 -0.52714675 -10.13392941 -13.10587386 83.20657076 -20.05177265 54.58994146 -5.59957878 -23.55916698
1077860000 -0.53106270 -10.16570004 -13.14677501 83.07266680 -19.98879914 54.56155074 -5.59189300 -23.61201327
1082850000 -0.53896376 -10.22924255 -13.13362731 82.92648041 -19.95966116 54.66153096 -5.60872261 -23.69184493
1087840000 -0.54518956 -10.26756921 -13.13687104 82.82330804 -19.95369852 54.76985633 -5.59517532 -23.77975840
1092830000 -0.56073028 -10.24971786 -13.16212685 82.72415022 -19.92791618 54.97513827 -5.58679607 -23.72095103
1097820000 -0.57476454 -10.21884249 -13.16815881 82.64184340 -19.92879133 54.95926287 -5.59434328 -23.81922704
1102810000 -0.58525342 -10.07946400 -13.17386804 82.62482390 -19.88019750 54.87511141 -5.59883899 -23.79026903
1107800000 -0.58555402 -9.99658548 -13.18051344 82.52181368 -19.85017320 54.96296034 -5.60347008 -23.83141115
1112790000 -0.56926370 -9.86242312 -13.17792555 82.41259235 -19.81327837 54.97938292 -5.62082859 -23.77894349
1117780000 -0.55628198 -9.78265064 -13.17186182 82.26575555 -19.72351450 54.79091458 -5.59912278 -23.87046519
1122770000 -0.53716450 -9.79860445 -13.17588173 82.15539938 -19.70869106 55.16797797 -5.60894430 -23.79442306
1127760000 -0.52535106 -9.89870635 -13.17786405 81.89895446 -19.68081900 54.74538860 -5.60475452 -23.69582168
1132750000 -0.52463644 -9.94440236 -13.16990465 81.73873697 -19.64764058 54.73645173 -5.63894205 -23.80845369
1137740000 -0.51951810 -10.02236088 -13.18414322 81.58554814 -19.64412919 54.77797591 -5.65451834 -23.87349407
1142730000 -0.52629798 -10.07189523 -13.18529895 81.51489898 -19.57592090 54.67370075 -5.64683007 -23.87478990
1147720000 -0.53430357 -10.18075092 -13.21363392 81.39229852 -19.59668572 54.73430855 -5.66785431 -23.93958145
1152710000 -0.54059500 -10.26921587 -13.23137123 81.10471510 -19.55903261 54.90200904 -5.68123251 -23.94525898
1157700000 -0.54163531 -10.37433902 -13.23902183 80.88133786 -19.53596407 54.64390354 -5.68556896 -23.99511576
1162690000 -0.55365359 -10.44846523 -13.24815313 80.88309643 -19.50092959 54.92012014 -5.69105034 -24.03629953
1167680000 -0.56409084 -10.52224196 -13.26330616 80.89662419 -19.49857583 54.78103422 -5.68566905 -24.05550575
1172670000 -0.56870966 -10.62286423 -13.26281136 80.68329880 -19.45228992 54.79757526 -5.68726575 -24.13612925
1177660000 -0.58270042 -10.66530152 -13.25896751 80.74786339 -19.44333375 54.80329285 -5.70166534 -24.17872311
1182650000 -0.58738931 -10.77194873 -13.27584975 80.64222934 -19.42413034 54.73604184 -5.69208325 -24.17810659
1187640000 -0.58956010 -10.86917744 -13.28266448 80.43804802 -19.40437942 54.53074716 -5.70480425 -24.27526543
1192630000 -0.59641741 -10.92971655 -13.27729810 80.32308743 -19.34929552 54.70223493 -5.70095128 -24.26835728
1197620000 -0.61179324 -10.93282558 -13.29641296 80.16727044 -19.36517074 54.71196991 -5.70569514 -24.32464741
1202610000 -0.61263775 -10.92042287 -13.31583547 80.16427739 -19.33687988 54.55265064 -5.70023253 -24.28089316
1207600000 -0.62814626 -10.94014667 -13.31708432 79.99469219 -19.33335279 54.85749433 -5.72325323 -24.35374338
1212590000 -0.62679602 -10.86927496 -13.32211427 80.05604549 -19.28937269 55.04466801 -5.71880142 -24.35850623
1217580000 -0.62672682 -10.78605365 -13.31831528 79.85717724 -19.27933449 54.82560688 -5.72295696 -24.30536784
1222570000 -0.62610496 -10.75764294 -13.29957157 79.77833271 -19.23327581 55.19125054 -5.73095415 -24.33481939
1227560000 -0.62362728 -10.60294629 -13.31721960 79.74414867 -19.18198834 55.04445777 -5.73071264 -24.33305748
1232550000 -0.60130038 -10.61425312 -13.29537849 79.64667947 -19.13435588 55.05895178 -5.74236385 -24.36733148
1237540000 -0.59334176 -10.65273481 -13.29885306 79.45650409 -19.10497471 55.06298075 -5.74224486 -24.34773868
1242530000 -0.59490447 -10.74832252 -13.32364942 79.23146644 -19.09352086 54.97851681 -5.76328203 -24.32882611
1247520000 -0.60242102 -10.82777770 -13.32176150 79.10523341 -19.09449279 54.77655568 -5.74320875 -24.36874226
1252510000 -0.60326895 -10.92304792 -13.32455282 78.76119179 -19.07594842 54.72547450 -5.77027348 -24.40765272
1257500000 -0.61769528 -10.92062038 -13.32743496 78.87205710 -19.02798203 54.87168578 -5.77619504 -24.43826029
1262490000 -0.61578798 -11.04532114 -13.33469592 78.78317391 -18.99173956 54.72604731 -5.77826402 -24.53270234
1267480000 -0.62329178 -11.15340786 -13.35895950 78.73519363 -19.01665695 54.92571395 -5.78272788 -24.56003041
1272470000 -0.63809827 -11.18725990 -13.36079485 78.61764760 -18.98367223 54.62396301 -5.78844051 -24.58560875
1277460000 -0.64658264 -11.30026789 -13.34556717 78.54290373 -18.97055948 54.52874288 -5.79884475 -24.58807933
1282450000 -0.64482943 -11.37352745 -13.35411208 78.46589498 -18.92516538 54.74968920 -5.79899911 -24.66854937
1287440000 -0.65828621 -11.39832770 -13.35783528 78.43768050 -18.89702427 54.84825790 -5.80866791 -24.81841626
1292430000 -0.65493992 -11.49671292 -13.36497162 78.22025875 -18.90171021 54.92632688 -5.80449987 -24.78928136
1297420000 -0.65665655 -11.47665311 -13.35126925 78.20063470 -18.88782576 54.91782575 -5.80672320 -24.84988723
1302410000 -0.65857919 -11.54767570 -13.36217718 78.09946188 -18.84965169 54.70067342 -5.80611765 -24.84476305
1307400000 -0.66630816 -11.62449307 -13.37108984 77.88527746 -18.84244337 54.94539781 -5.80727750 -24.91564627
1312390000 -0.67300034 -11.63758629 -13.37909417 77.78509101 -18.79655116 54.78423510 -5.80741266 -24.96959154
1317380000 -0.67460251 -11.59962293 -13.38556214 77.70808933 -18.75872224 54.91953131 -5.79580469 -24.95336586
1322370000 -0.67718459 -11.57238828 -13.39065126 77.75658811 -18.71487680 54.89307996 -5.79305210 -24.87518773
1327360000 -0.67314550 -11.52893718 -13.40261404 77.71684905 -18.70627043 54.86597978 -5.81024388 -24.91853850
1332350000 -0.67825019 -11.40228234 -13.39194058 77.70351297 -18.66714646 54.92169301 -5.81098896 -24.91015123
1337340000 -0.67216828 -11.47723372 -13.35973045 77.53720142 -18.67092788 54.99920585 -5.82985025 -24.92603299
1342330000 -0.66270296 -11.50318532 -13.34750528 77.43067234 -18.61321325 54.82727321 -5.82706799 -24.94585635
1347320000 -0.66120328 -11.49765267 -13.36847366 77.13914187 -18.59324764 54.91888727 -5.83667053 -25.03674584
1352310000 -0.67262287 -11.56578799 -13.35778795 77.03908795 -18.60535261 54.70456269 -5.83867209 -25.01340249
1357300000 -0.66664475 -11.63936670 -13.38832960 76.83420792 -18.57074418 54.69846107 -5.84716244 -25.02496366
1362290000 -0.67843062 -11.69238982 -13.38630078 76.70441257 -18.53560905 54.68368945 -5.84957257 -25.05063850
1367280000 -0.68890478 -11.71057794 -13.39973625 76.72888577 -18.50326587 54.69529455 -5.87057473 -25.07192699
1372270000 -0.69490785 -11.81971947 -13.40718386 76.68470105 -18.48737245 54.68074945 -5.87114406 -25.09898294
1377260000 -0.70577997 -11.83888293 -13.41018791 76.65019074 -18.50070793 54.77133760 -5.87670293 -25.18140904
1382250000 -0.70996499 -11.96269870 -13.40737421 76.64082652 -18.45738496 54.81745142 -5.86551282 -25.19844705
1387240000 -0.71586111 -11.98833514 -13.41494117 76.50653227 -18.44769535 54.72761724 -5.86332693 -25.11698646
1392230000 -0.71252907 -12.07604071 -13.39966748 76.36641745 -18.42713522 54.74927707 -5.86376232 -25.26210808
1397220000 -0.71082682 -12.16970034 -13.38785208 76.32999679 -18.39200416 54.90594231 -5.85334836 -25.19832825
1402210000 -0.71455677 -12.22014531 -13.38893775 76.20423271 -18.37346313 54.82282892 -5.87045477 -25.29278513
1407200000 -0.71655665 -12.28144569 -13.38066659 75.99840674 -18.36044027 54.83054152 -5.87278580 -25.36011399
1412190000 -0.70599407 -12.35465466 -13.37863875 76.01410658 -18.32205231 54.89285356 -5.86283615 -25.32303623
1417180000 -0.71210942 -12.39580113 -13.41677284 75.85408241 -18.28833648 54.76423257 -5.86148078 -25.44115049
1422170000 -0.71509396 -12.36348618 -13.40028623 75.83581199 -18.26897507 54.89638375 -5.87244384 -25.37897973
1427160000 -0.72485333 -12.40876585 -13.41839665 75.65039284 -18.27045956 54.74862246 -5.90103900 -25.49130930
1432150000 -0.72122366 -12.41173701 -13.40234131 75.73858651 -18.23893136 54.90567381 -5.88611184 -25.43083795
1437140000 -0.73003223 -12.35143150 -13.41633211 75.63154745 -18.22192920 54.72299385 -5.90655376 -25.51779638
1442130000 -0.72774317 -12.34881845 -13.40176884 75.59533678 -18.17319093 54.75694055 -5.89372820 -25.54592826
1447120000 -0.72134982 -12.38203366 -13.37175047 75.39310393 -18.14568553 54.94286191 -5.88990325 -25.58182017
1452110000 -0.73063120 -12.30412104 -13.38730643 75.33907755 -18.13401267 54.62624315 -5.89607481 -25.56646978
1457100000 -0.73014193 -12.38313740 -13.38358242 75.15822308 -18.09729174 54.61090104 -5.95375026 -25.67071589
1462090000 -0.73683848 -12.37869603 -13.38980827 75.06475565 -18.10721500 54.71760398 -5.93693685 -25.65987897
1467080000 -0.73180684 -12.42306443 -13.38163165 75.01759105 -18.07362948 54.76686949 -5.96037201 -25.73140015
1472070000 -0.73875212 -12.52573496 -13.38733359 74.73509039 -18.05971535 54.88076716 -5.96042963 -25.73844552
1477060000 -0.74990080 -12.56591135 -13.41100487 74.99742662 -18.05780465 54.80963169 -5.97448983 -25.89098406
1482050000 -0.75606579 -12.62896853 -13.41600079 74.85763801 -18.03779491 54.66910785 -5.99114664 -25.86995068
1487040000 -0.76887488 -12.69736844 -13.39764105 74.78417847 -18.01445788 54.87477325 -6.00289404 -25.89890060
1492030000 -0.76394047 -12.69948163 -13.38689886 74.56573608 -18.01040825 54.71989332 -6.00999216 -25.95331970
1497020000 -0.77234988 -12.73855284 -13.40015125 74.55848656 -17.96429419 54.72728917 -6.00356341 -26.13097027
1502010000 -0.76993460 -12.83927944 -13.38149436 74.43937023 -17.94451314 54.83392532 -5.99565542 -26.14249664
1507000000 -0.76066836 -12.86250410 -13.39201045 74.55955527 -17.93264336 54.76520741 -6.00474568 -26.10864143
1511990000 -0.75643018 -12.91205147 -13.39271154 74.35969534 -17.90849133 54.83447617 -6.00925722 -26.11372369
1516980000 -0.75206326 -12.95732124 -13.37487746 74.25021899 -17.89780957 54.78577536 -6.01171190 -26.19503172
1521970000 -0.74387027 -12.99711793 -13.36214044 74.10426795 -17.83583133 54.75078159 -6.01157328 -26.18710668
1526960000 -0.73889146 -13.09412651 -13.36776040 74.02764321 -17.82328899 54.66354683 -6.01491392 -26.26817436
1531950000 -0.74375204 -13.16305243 -13.38225813 73.88463318 -17.79208807 54.64197363 -6.01695952 -26.27310185
1536940000 -0.75161598 -13.23306119 -13.38974329 73.88923887 -17.77840772 54.64522854 -6.01051151 -26.26420041
1541930000 -0.75266477 -13.17927369 -13.39338846 73.86386636 -17.76840403 54.63059565 -6.02083871 -26.26989774
1546920000 -0.74656688 -13.18889211 -13.38539004 73.71380105 -17.72447322 54.82002201 -6.02745443 -26.30153909
1551910000 -0.75626943 -13.18671292 -13.37213105 73.60096054 -17.73157205 54.62511236 -6.04014761 -26.30191293
1556900000 -0.76103124 -13.19594820 -13.35704362 73.41511003 -17.69237068 54.74059796 -6.04573893 -26.39559650
1561890000 -0.76325342 -13.19763988 -13.36252149 73.42244838 -17.68719620 54.66082112 -6.05349440 -26.41342066
1566880000 -0.77318511 -13.18947885 -13.36599180 73.28813270 -17.66127737 54.50485526 -6.04983171 -26.43558739
1571870000 -0.77486237 -13.27883959 -13.35130916 73.10719068 -17.64447750 54.50644413 -6.05237560 -26.44917349
1576860000 -0.79676047 -13.25846612 -13.37564017 73.24485664 -17.60653641 54.72091462 -6.05632839 -26.43485317
1581850000 -0.79711005 -13.39797692 -13.37264551 73.07486713 -17.60285169 54.47338147 -6.05769238 -26.58962307
1586840000 -0.79994542 -13.36541380 -13.36048194 73.14760174 -17.61192932 54.57665158 -6.06957530 -26.54555328
1591830000 -0.80707064 -13.41537580 -13.38089743 72.95354157 -17.57770484 54.50714460 -6.07300170 -26.58718506
1596820000 -0.80831153 -13.48488795 -13.36980313 72.92608495 -17.57626435 54.57413299 -6.08728926 -26.67610676
1601810000 -0.80310284 -13.50134979 -13.35377104 72.91943001 -17.50762196 54.61490251 -6.07759702 -26.72210239
1606800000 -0.81526625 -13.59063648 -13.36078252 72.87413733 -17.53830027 54.52020453 -6.07155710 -26.69186451
1611790000 -0.80587281 -13.64660501 -13.33680072 72.58131358 -17.49875187 54.44727247 -6.07409624 -26.78595982
1616780000 -0.79988835 -13.79042708 -13.32077399 72.55653395 -17.48155134 54.44045633 -6.07563756 -26.80329628
1621770000 -0.79920983 -13.75456549 -13.34407636 72.44372592 -17.45388868 54.50347754 -6.07472464 -26.88956503
1626760000 -0.78955346 -13.79171971 -13.33528663 72.47080397 -17.41987221 54.47984655 -6.08597144 -26.86804959
1631750000 -0.78996743 -13.85940711 -13.33664091 72.23320674 -17.38616079 54.33570569 -6.07792005 -26.97478707
1636740000 -0.77755746 -13.90294971 -13.34598704 72.27730176 -17.37237802 54.31204022 -6.07271359 -26.92691899
1641730000 -0.77105176 -13.93027408 -13.31072437 72.16894511 -17.33398057 54.57421286 -6.08868556 -26.94766681
1646720000 -0.77814733 -13.97943703 -13.33969339 72.11839079 -17.33014023 54.51488414 -6.08459485 -26.91369224
1651710000 -0.77475378 -14.01765862 -13.32677347 71.96962535 -17.30379928 54.37676072 -6.10029279 -26.99611138
1656700000 -0.77948625 -14.03664359 -13.30944841 71.94811233 -17.28716119 54.30283059 -6.08654140 -27.04667939
1661690000 -0.78255658 -14.07395988 -13.30205074 71.91026638 -17.26810567 54.26947249 -6.10129030 -27.13615902
1666680000 -0.79097844 -14.09593471 -13.30208013 71.74273521 -17.25020248 54.29579404 -6.09556724 -27.04209992
1671670000 -0.79260709 -14.07514198 -13.31242655 71.74324036 -17.21090256 54.30848523 -6.11318440 -27.08805239
1676660000 -0.79989946 -14.16723156 -13.32699785 71.52729369 -17.21064551 54.35592590 -6.13004533 -27.13364815
1681650000 -0.80238972 -14.14224435 -13.31168354 71.61453652 -17.20259903 54.18861900 -6.13283315 -27.18407406
1686640000 -0.81254700 -14.17511059 -13.30760489 71.50023062 -17.15983833 54.38372462 -6.12060080 -27.24521565
1691630000 -0.82533571 -14.24477299 -13.29304745 71.38655742 -17.14711583 54.22255758 -6.13747511 -27.23879636
1696620000 -0.82954699 -14.24293240 -13.28517994 71.45304230 -17.15441059 54.32007070 -6.13822718 -27.25999291
1701610000 -0.82791502 -14.30318319 -13.27710475 71.28390238 -17.12398182 54.23397836 -6.15002190 -27.27590461
1706600000 -0.82300781 -14.39038274 -13.27678562 71.32324920 -17.10743213 54.11810810 -6.13982871 -27.42110219
1711590000 -0.83030047 -14.37402977 -13.28630615 71.15829044 -17.08324988 54.19820181 -6.13937075 -27.40321203
1716580000 -0.82213662 -14.50939528 -13.26154110 71.01739330 -17.05943598 54.41469472 -6.13720863 -27.44615496
1721570000 -0.82686645 -14.56171082 -13.27086327 70.89248215 -17.04640690 54.10973400 -6.15242996 -27.53447712
1726560000 -0.82666451 -14.59467374 -13.27381907 70.98938432 -17.03458417 54.21709535 -6.15508464 -27.53262515
1731550000 -0.80461820 -14.69559548 -13.29909571 70.81752403 -16.96311241 54.05902200 -6.14825886 -27.49814083
1736540000 -0.80757864 -14.74962430 -13.26289718 70.62993069 -16.99424836 54.07697004 -6.15201107 -27.59213310
1741530000 -0.80450077 -14.74501731 -13.25442082 70.70063972 -16.95300890 54.00874111 -6.16189836 -27.57778728
1746520000 -0.79495238 -14.77953631 -13.25849678 70.62474735 -16.93425779 54.17237556 -6.14466048 -27.61733455
1751510000 -0.80028210 -14.80202133 -13.25107844 70.60230066 -16.91619176 53.99325690 -6.17407963 -27.65889341
1756500000 -0.79631672 -14.81667372 -13.25080610 70.57257061 -16.86180333 53.99950849 -6.14967147 -27.71849777
1761490000 -0.78343128 -14.89643026 -13.22738826 70.24839134 -16.88368030 54.07056541 -6.16664294 -27.65169354
1766480000 -0.79400713 -14.93435909 -13.23622044 70.22711519 -16.86648651 53.87312293 -6.17636282 -27.74396926
1771470000 -0.80039509 -14.95896585 -13.23720761 70.19482637 -16.83366170 53.83238520 -6.16652366 -27.85851293
1776460000 -0.80633572 -15.04205311 -13.23709547 69.98061893 -16.79822031 53.88314923 -6.15559557 -27.81397909
1781450000 -0.81756439 -15.04147324 -13.23749542 69.86208817 -16.78561497 53.80015027 -6.17999962 -27.81660790
1786440000 -0.82449158 -15.05420066 -13.25082296 69.88948864 -16.77383761 53.67147463 -6.18626272 -27.97751731
1791430000 -0.83313581 -15.11213103 -13.22939970 69.75122465 -16.75818225 53.88905142 -6.20018152 -27.93324395
1796420000 -0.83891060 -15.09510492 -13.23641458 69.74326224 -16.74040205 53.87356716 -6.21240817 -28.15700628
1801410000 -0.84306154 -15.17522187 -13.23561869 69.85406440 -16.73763270 53.70754698 -6.20259213 -28.05473617
1806400000 -0.84772359 -15.17898457 -13.19361440 69.72273016 -16.74271895 53.86460688 -6.20124245 -28.10199691
1811390000 -0.85292786 -15.22290058 -13.21679356 69.76362680 -16.67987915 53.81362969 -6.19919109 -28.12592587
1816380000 -0.85027058 -15.28553362 -13.18909132 69.60248578 -16.69762060 53.80499473 -6.20293051 -28.18770928
1821370000 -0.84963365 -15.41968098 -13.19488210 69.36798328 -16.65633751 53.77901357 -6.20434486 -28.28237139
1826360000 -0.85248426 -15.37268486 -13.18546949 69.42566455 -16.64250651 53.90212546 -6.20922769 -28.19958654
1831350000 -0.84913383 -15.43696737 -13.19038976 69.42001181 -16.62201277 53.67603499 -6.19951894 -28.46175022
1836340000 -0.82527206 -15.50052616 -13.16613232 69.16176819 -16.56394015 53.68010570 -6.18270830 -28.37923925
1841330000 -0.82857208 -15.59153708 -13.14848713 68.93872788 -16.53735568 53.55815175 -6.17886977 -28.33306637
1846320000 -0.81779034 -15.65137370 -13.19080749 69.23789757 -16.53416561 53.66774287 -6.17014665 -28.43362468
1851310000 -0.80628866 -15.72432952 -13.15673109 68.88524976 -16.53065360 53.57756599 -6.17410994 -28.45294599
1856300000 -0.80441322 -15.73674861 -13.15253849 68.88662731 -16.50323413 53.47838005 -6.16879085 -28.37677713
1861290000 -0.82072134 -15.79130327 -13.15343032 68.72341052 -16.48270443 53.27077387 -6.17113798 -28.46307018
1866280000 -0.80339694 -15.79346164 -13.14615494 68.82286188 -16.46864965 53.27357612 -6.14910512 -28.37586728
1871270000 -0.80493628 -15.87995977 -13.14869214 68.67484637 -16.38386680 53.23998771 -6.13447875 -28.44421529
1876260000 -0.82210214 -15.91594946 -13.12390083 68.50435596 -16.42272484 53.36187939 -6.16210559 -28.47025802
1881250000 -0.81929121 -15.90814403 -13.13924460 68.50873621 -16.40549105 53.24181681 -6.15688477 -28.51030798
1886240000 -0.82440147 -15.91687778 -13.12339909 68.45948445 -16.38662472 53.08722609 -6.15258430 -28.49045255
1891230000 -0.83215450 -15.96198627 -13.13686458 68.44723523 -16.38369825 53.11296502 -6.17136588 -28.64514717
1896220000 -0.84175051 -16.02992025 -13.11844686 68.17021256 -16.38912094 53.37465194 -6.20360672 -28.66983712
1901210000 -0.85501215 -16.03533689 -13.12082366 68.23198386 -16.35313801 53.08144456 -6.23982897 -28.78320628
1906200000 -0.84866061 -16.06936628 -13.10289870 68.27088601 -16.33529305 53.13105087 -6.23025456 -28.76651907
1911190000 -0.85832717 -16.12495766 -13.10943186 68.06092791 -16.31107063 53.15542430 -6.23794650 -28.79995488
1916180000 -0.86507373 -16.16366816 -13.11298620 68.01227440 -16.30173615 53.37445024 -6.23746409 -28.89612053
1921170000 -0.85890839 -16.28970909 -13.09209663 67.87854726 -16.30100062 53.13400444 -6.25198280 -28.99297237
1926160000 -0.86644651 -16.28675523 -13.09260443 67.92818319 -16.28320090 53.37512192 -6.23684315 -28.99693483
1931150000 -0.86225767 -16.35199398 -13.07863665 67.90891226 -16.22306230 53.08451266 -6.22759581 -29.01279675
1936140000 -0.84835767 -16.39497153 -13.06487098 67.69075586 -16.19137757 53.10879992 -6.18291732 -29.12695928
1941130000 -0.85066610 -16.35119007 -13.07791527 67.68122201 -16.18712114 52.91405817 -6.18140927 -29.08605699
1946120000 -0.84569072 -16.51875596 -13.07927677 67.64934155 -16.19442272 53.04448476 -6.17423317 -29.11201553
1951110000 -0.83135914 -16.56973669 -13.08744220 67.52579168 -16.14459332 53.09267431 -6.17930224 -29.16323363
1956100000 -0.82763187 -16.61683134 -13.07884875 67.46728375 -16.13783676 53.11687273 -6.19229448 -29.15545182
1961090000 -0.82538786 -16.67339872 -13.05791840 67.38271221 -16.11189765 52.91219201 -6.18968304 -29.14383515
1966080000 -0.82555569 -16.71470020 -13.04504967 67.36753558 -16.11612292 52.95312221 -6.18717443 -29.18514810
1971070000 -0.81989767 -16.81188623 -13.06048228 67.28733862 -16.06826750 52.71179612 -6.22659106 -29.20196482
1976060000 -0.82568727 -16.81209793 -13.03809571 67.03440707 -16.10829537 52.75903396 -6.21882030 -29.34649886
1981050000 -0.82608952 -16.82096182 -13.01465632 67.05716675 -16.09742633 52.62567847 -6.25902154 -29.33066062
1986040000 -0.82505649 -16.71991099 -13.03569582 67.06072783 -16.05490637 52.92163399 -6.28459913 -29.36625923
1991030000 -0.82368095 -16.78763710 -13.01730318 67.00038902 -16.05183193 52.86415715 -6.27327177 -29.40564089
1996020000 -0.85332178 -16.87299936 -13.02224676 66.88333081 -16.03900858 52.76455163 -6.27934322 -29.43618213
2001010000 -0.84378384 -16.89464126 -13.00285361 66.52367987 -16.01411017 52.43493295 -6.29261068 -29.48958082
2006000000 -0.85440127 -16.96410040 -13.02459231 66.73072196 -16.00317184 52.58558913 -6.30242854 -29.47641502
2010990000 -0.85556862 -16.97657133 -13.02278838 66.64676874 -16.01212311 52.76808823 -6.29791290 -29.51865242
2015980000 -0.86758916 -16.98229431 -13.02574166 66.54438553 -15.99868500 52.48943141 -6.29035137 -29.66331544
2020970000 -0.87278459 -17.06235363 -13.00513570 66.46679780 -15.93330248 52.53502362 -6.29408625 -29.67546303
2025960000 -0.87439475 -17.12783650 -12.98983672 66.34961279 -15.94256355 52.56661598 -6.30846364 -29.82230291
2030950000 -0.88183737 -17.17926205 -13.00697336 66.45474255 -15.94365040 52.52114009 -6.31338158 -29.79529175
2035940000 -0.86972765 -17.24875718 -12.99820623 66.29256907 -15.92526091 52.55171481 -6.30907676 -29.89139960
2040930000 -0.86573435 -17.35241388 -12.99962750 66.33665064 -15.89542281 52.65860769 -6.30461182 -29.83452455
2045920000 -0.85491017 -17.40219634 -12.98214855 66.23506399 -15.85993893 52.52732920 -6.31195966 -29.85575407
2050910000 -0.85259809 -17.45699055 -12.98267108 66.09215180 -15.85588920 52.47317677 -6.29830742 -29.84524231
2055900000 -0.85457966 -17.43535828 -12.97357975 66.11625214 -15.83128722 52.65577465 -6.29936812 -29.92116114
2060890000 -0.84470883 -17.51773391 -12.94896254 66.01233586 -15.82201951 52.47087999 -6.30302223 -29.97791107
2065880000 -0.83238412 -17.67414245 -12.93279674 65.94965705 -15.78497794 52.32312064 -6.29776777 -30.00212216
2070870000 -0.83012368 -17.68912558 -12.94624227 65.74823507 -15.77550059 52.28058464 -6.30650060 -29.99086634
2075860000 -0.82427509 -17.66684606 -12.93068947 65.65926166 -15.76463297 52.16107365 -6.31516732 -30.09562675
2080850000 -0.83350070 -17.71229668 -12.94971488 65.59526266 -15.74237479 52.13317373 -6.31980184 -29.97427416
2085840000 -0.83916205 -17.74358794 -12.93576587 65.59084503 -15.74805158 52.13021813 -6.31516357 -29.92550967
2090830000 -0.83887109 -17.79038387 -12.94491942 65.53967303 -15.73318799 52.12999696 -6.33227420 -30.06269885
2095820000 -0.84545915 -17.76100519 -12.91812196 65.35318390 -15.72829389 51.98241319 -6.32739571 -30.14148777
2100810000 -0.85234935 -17.78768679 -12.92244394 65.27475112 -15.71116505 52.02679383 -6.36040689 -30.14179409
2105800000 -0.86117156 -17.83850028 -12.93467232 65.19792708 -15.70313871 51.91976832 -6.37560428 -30.21873760
2110790000 -0.87655854 -17.81478613 -12.93386384 65.18069586 -15.70570357 51.86281562 -6.36850586 -30.17104544
2115780000 -0.87933809 -17.93662697 -12.92226128 65.12907937 -15.67305957 51.99413971 -6.38214329 -30.31750374
2120770000 -0.87833904 -17.89786721 -12.89474622 65.21744446 -15.66388301 51.97140038 -6.36222389 -30.42597313
2125760000 -0.88750014 -17.96614588 -12.89995715 65.10885707 -15.63990581 52.10186527 -6.38474395 -30.45820327
2130750000 -0.88704582 -18.02743596 -12.88772573 64.99382654 -15.62645172 51.97357521 -6.37261676 -30.61724110
2135740000 -0.89124774 -18.03205978 -12.90281559 64.92613850 -15.62239910 51.77765693 -6.38165078 -30.57878657
2140730000 -0.88294486 -18.14270469 -12.88711478 64.81004963 -15.61426355 51.97515993 -6.39000142 -30.66269552
2145720000 -0.88756002 -18.19748984 -12.88827713 64.86018914 -15.60183202 51.85824837 -6.39510324 -30.65082265
2150710000 -0.87789607 -18.30952636 -12.87524728 64.94061689 -15.57688179 51.89705865 -6.39088149 -30.59910229
2155700000 -0.86522725 -18.31914999 -12.86666539 64.84959570 -15.57102024 51.91196428 -6.39971042 -30.68487979
2160690000 -0.86948065 -18.39296454 -12.89285527 64.64808902 -15.53874623 51.84831544 -6.37755152 -30.68953081
2165680000 -0.85814700 -18.50345174 -12.85751152 64.53299729 -15.50506798 51.76592820 -6.38026527 -30.81934531
2170670000 -0.85261737 -18.50548795 -12.85252026 64.48186114 -15.51787613 51.67143757 -6.39545056 -30.63387895
2175660000 -0.85024747 -18.57867548 -12.85767441 64.38345211 -15.48222681 51.69387535 -6.38996600 -30.80151327
2180650000 -0.85631890 -18.53259249 -12.84411624 64.45559129 -15.47549072 51.52495466 -6.39592223 -30.88838052
2185640000 -0.84515331 -18.62621444 -12.83708530 64.28661997 -15.45116924 51.63539703 -6.38271259 -30.77684457
2190630000 -0.84623764 -18.59900258 -12.82375467 64.21822535 -15.47328377 51.64673544 -6.42023955 -30.77501657
2195620000 -0.85519286 -18.63983961 -12.82113271 64.12661540 -15.44988828 51.62105223 -6.44583749 -30.95496016
2200610000 -0.86046304 -18.68646115 -12.82393246 63.98660943 -15.44281454 51.34742337 -6.43168197 -30.95474117
2205600000 -0.86832964 -18.71664639 -12.83183419 63.88377712 -15.42798469 51.41555869 -6.44484002 -30.97643082
2210590000 -0.87946361 -18.70091185 -12.82322133 63.84094365 -15.41393811 51.48135411 -6.43092254 -31.06826379
2215580000 -0.89002030 -18.74917110 -12.81762379 63.77081824 -15.38297124 51.26036339 -6.43128870 -31.01585624
2220570000 -0.89896415 -18.70533596 -12.82679368 63.72882749 -15.38043674 51.38481773 -6.42758381 -31.12232272
2225560000 -0.90704230 -18.82989395 -12.82347647 63.83773677 -15.39806382 51.23109889 -6.45368689 -31.14541840
2230550000 -0.90881554 -18.81039860 -12.81184674 63.66101830 -15.36338898 51.35816299 -6.46298596 -31.20064084
2235540000 -0.91343646 -18.94719861 -12.81837992 63.58289901 -15.34913865 51.24463070 -6.46895468 -31.31068914
2240530000 -0.90824707 -18.93327193 -12.78475776 63.75656643 -15.31479793 51.39491442 -6.45889435 -31.41032605
2245520000 -0.90730543 -18.97124790 -12.78045195 63.41549265 -15.30985130 51.32819055 -6.44868446 -31.38132320
2250510000 -0.90952331 -19.02228585 -12.80021672 63.47250034 -15.30399586 51.30922992 -6.45586878 -31.40811062
2255500000 -0.90501927 -19.10387622 -12.77622226 63.39632064 -15.27554946 51.28903394 -6.45696416 -31.43929561
2260490000 -0.90076100 -19.24145259 -12.79103578 63.32044735 -15.29004513 51.16976435 -6.46196640 -31.52059207
2265480000 -0.89638155 -19.23370209 -12.74388316 63.29976198 -15.23493786 51.25778493 -6.45362902 -31.55161844
2270470000 -0.89411026 -19.28904395 -12.77257810 63.14663127 -15.23528916 51.10791892 -6.45532901 -31.57811295
2275460000 -0.89000864 -19.32410577 -12.76790851 63.17331551 -15.21763996 51.03621690 -6.45356915 -31.57706318
2280450000 -0.88971020 -19.37904197 -12.74021264 63.05338666 -15.22513840 50.99792238 -6.45230892 -31.58863481
2285440000 -0.89052690 -19.47612262 -12.75520022 62.92128331 -15.19353778 51.05901741 -6.46697039 -31.57684573
2290430000 -0.88521218 -19.44253785 -12.73334881 62.97188798 -15.17090842 50.92326806 -6.45983125 -31.62793130
2295420000 -0.87920254 -19.49792235 -12.71116934 62.92432068 -15.16291503 50.92448511 -6.46899804 -31.64604549
2300410000 -0.89122141 -19.48250474 -12.72619925 62.70969767 -15.18000546 50.96462566 -6.46961533 -31.63291150
2305400000 -0.90305079 -19.52285734 -12.71686699 62.71708744 -15.13826271 50.83101966 -6.48061677 -31.68233964
2310390000 -0.89920074 -19.47753354 -12.70661030 62.67515125 -15.15136772 50.79137178 -6.49322986 -31.65335533
2315380000 -0.91682915 -19.52292512 -12.70760419 62.45997632 -15.13022113 50.68373481 -6.48516522 -31.82557243
2320370000 -0.92479559 -19.55973027 -12.70139346 62.47249173 -15.09493969 50.62504367 -6.50418877 -31.87076551
2325360000 -0.93408169 -19.59758088 -12.70757760 62.43425779 -15.10416143 50.57619284 -6.52123651 -31.95540917
2330350000 -0.93676924 -19.60448297 -12.73357381 62.32442839 -15.09784087 50.57549812 -6.51756310 -32.00042201
2335340000 -0.94558432 -19.57317883 -12.71850301 62.29022754 -15.08120318 50.75711304 -6.52173672 -32.04112397
2340330000 -0.95120702 -19.63304922 -12.72308821 62.33551543 -15.08689819 50.58935813 -6.51809028 -32.10107472
2345320000 -0.95217889 -19.62829122 -12.70572377 62.35530209 -15.08944531 50.68839918 -6.53543133 -32.12434612
2350310000 -0.95097204 -19.70452640 -12.69545715 62.25239355 -15.05641789 50.57367032 -6.51800642 -32.09709796
2355300000 -0.94768771 -19.78810626 -12.67350191 62.24804353 -15.03292334 50.86448067 -6.52748671 -32.22150919
2360290000 -0.94447991 -19.83690205 -12.69772021 62.25502451 -15.00922615 50.62136311 -6.53611137 -32.25874509
2365280000 -0.94199224 -19.94860702 -12.68889888 61.95517301 -15.01965912 50.80741800 -6.53572236 -32.27283440
2370270000 -0.92945106 -19.98183238 -12.68500406 61.98490708 -14.99899029 50.56448318 -6.53462824 -32.35397743
2375260000 -0.92501215 -20.06402610 -12.64375848 62.08047802 -14.96944586 50.60497983 -6.53660117 -32.33489844
2380250000 -0.92543971 -20.09069157 -12.64288971 61.88678359 -14.94612937 50.48079644 -6.53484067 -32.34736263
2385240000 -0.92158067 -20.14378320 -12.63928315 61.70117267 -14.94351398 50.28716577 -6.52680600 -32.37971845
2390230000 -0.91876177 -20.13453340 -12.63799927 61.72049002 -14.94832734 50.26977080 -6.53329154 -32.37423465
2395220000 -0.90626159 -20.23522760 -12.61952543 61.61317773 -14.91785715 50.21094278 -6.53993436 -32.31460528
2400210000 -0.91879037 -20.22457483 -12.65084833 61.60935673 -14.92386225 50.27642471 -6.54980222 -32.40273951
2405200000 -0.92687199 -20.20352077 -12.64528912 61.60452771 -14.89916662 50.16344532 -6.56233523 -32.43658483
2410190000 -0.92759625 -20.21002640 -12.62270070 61.37906616 -14.90419945 50.12130959 -6.54623746 -32.48358954
2415180000 -0.94081887 -20.23324291 -12.63149965 61.44192070 -14.87531846 50.18283145 -6.56714725 -32.44254857
2420170000 -0.94193807 -20.23478933 -12.63058863 61.28808682 -14.86101989 50.10678536 -6.55899824 -32.59195305
2425160000 -0.95583355 -20.28356645 -12.63179934 61.25286206 -14.85228394 50.13445393 -6.57648645 -32.59359270
2430150000 -0.96416606 -20.26804549 -12.60428652 61.18222894 -14.88638082 50.04633227 -6.59763772 -32.72657115
2435140000 -0.97151151 -20.30159534 -12.60128470 61.02075211 -14.85018076 50.03142197 -6.58576036 -32.66402535
2440130000 -0.99030860 -20.27996442 -12.60793066 60.97142164 -14.84771177 49.95554155 -6.59135246 -32.80162226
2445120000 -0.98790283 -20.34904074 -12.60425815 61.07967472 -14.81661969 50.13868751 -6.59101155 -32.85564952
2450110000 -0.99091301 -20.32803366 -12.59964018 61.07319201 -14.81291645 50.06665828 -6.60662776 -32.88665516
2455100000 -0.99130027 -20.38825591 -12.60130263 61.06329033 -14.79815706 50.14330812 -6.59222056 -33.00873099
2460090000 -0.99023598 -20.43752984 -12.58353871 61.05408776 -14.77541712 50.08939976 -6.59969554 -33.00939848
2465080000 -0.99422873 -20.53819077 -12.59152157 60.93191927 -14.77617710 49.85015625 -6.59611886 -33.04028549
2470070000 -0.98967723 -20.60501290 -12.58167679 60.84590207 -14.74852476 50.03100326 -6.57357000 -33.13488909
2475060000 -0.98248206 -20.63141684 -12.56558329 60.91458904 -14.75231237 49.89998557 -6.60419197 -33.13380565
2480050000 -0.97718143 -20.67570406 -12.56873061 60.68462033 -14.74982061 49.83392469 -6.56983206 -33.12243644
2485040000 -0.96927289 -20.74014964 -12.55265049 60.66421181 -14.71036778 49.74162554 -6.57356893 -33.10107545
2490030000 -0.97333581 -20.80830433 -12.54621549 60.56688955 -14.69712735 49.81569709 -6.58605049 -33.11760108
2495020000 -0.97386935 -20.80163444 -12.53276314 60.51273058 -14.69270537 49.72861262 -6.57288646 -33.20133092
2500010000 -0.97301821 -20.85112921 -12.55104960 60.49976710 -14.66381267 49.66351867 -6.58814337 -33.23194930
2505000000 -0.97605466 -20.90236734 -12.54483337 60.24554955 -14.66652988 49.55065748 -6.60173571 -33.21520599
2509990000 -0.96951115 -20.84468017 -12.52074245 60.40615740 -14.65197454 49.69062246 -6.59759223 -33.27397601
2514980000 -0.98320825 -20.87166545 -12.53128838 60.16669966 -14.63709850 49.40543788 -6.60028988 -33.23357815
2519970000 -0.99622811 -20.88005418 -12.53502042 60.25807432 -14.63431180 49.22866840 -6.61542715 -33.38465758
2524960000 -0.99863771 -20.98041408 -12.50275164 60.03990322 -14.62830877 49.27255294 -6.61463115 -33.40598404
2529950000 -1.00217157 -20.97080386 -12.51718542 59.88758644 -14.59968980 49.43173278 -6.61431623 -33.44879825
2534940000 -1.01133814 -20.90323528 -12.52255759 59.92356056 -14.59983920 49.36672961 -6.62224916 -33.48711990
2539930000 -1.02994607 -21.00046757 -12.50565276 59.82576501 -14.60534836 49.33916287 -6.63291712 -33.59712739
2544920000 -1.03942955 -20.98165716 -12.52803530 59.77910901 -14.58651203 49.25731820 -6.64015724 -33.57008870
2549910000 -1.04492297 -20.98866602 -12.51790196 59.89198742 -14.59273552 49.26314041 -6.64643633 -33.66777187
2554900000 -1.04829295 -21.00428165 -12.51992966 59.87204895 -14.55839093 49.38194121 -6.65104845 -33.75077993
2559890000 -1.04040489 -21.00944919 -12.49364674 59.75941586 -14.55261985 49.27664789 -6.63917640 -33.79336503
2564880000 -1.05210895 -21.04684608 -12.51196294 59.71502726 -14.53438073 49.34559805 -6.62541068 -33.81152294
2569870000 -1.04538908 -21.12393952 -12.49392261 59.70784612 -14.53555229 49.24566252 -6.64023724 -33.89586247
2574860000 -1.03370665 -21.22383464 -12.49311850 59.64468442 -14.51965604 49.15126361 -6.64122690 -33.94665707
2579850000 -1.04284589 -21.23709556 -12.47335273 59.68986994 -14.50024178 49.24700512 -6.62630632 -33.99623502
2584840000 -1.04058083 -21.32473191 -12.46816161 59.57909745 -14.49003012 49.19229807 -6.61785824 -33.92493350
2589830000 -1.02727002 -21.40349646 -12.45884354 59.45119073 -14.45984083 49.23791570 -6.62652407 -34.02827907
2594820000 -1.03064988 -21.42329503 -12.46192664 59.48284424 -14.47400538 49.17484719 -6.63734544 -33.94281562
2599810000 -1.02811939 -21.40301005 -12.46080531 59.52731607 -14.45097263 48.94840482 -6.63962963 -34.07310991
2604800000 -1.02478543 -21.40158460 -12.42908696 59.24528804 -14.44605598 49.00377805 -6.65546870 -34.04672817
2609790000 -1.02875483 -21.56839349 -12.43089368 59.23841557 -14.43678833 49.06426461 -6.64027997 -34.08858887
2614780000 -1.03264696 -21.46052985 -12.42827756 59.23288933 -14.41072579 48.96680946 -6.64203254 -34.06150364
2619770000 -1.03020815 -21.54706464 -12.44119590 59.00376873 -14.41707515 48.81084506 -6.63722106 -34.03030912
2624760000 -1.04921678 -21.55603462 -12.45310234 59.02413398 -14.40282495 48.79699729 -6.65869477 -34.14580438
2629750000 -1.03650206 -21.51465528 -12.41873075 58.95675699 -14.39370258 48.87290569 -6.67435837 -34.20861388
2634740000 -1.06774381 -21.53715097 -12.43708147 58.96406405 -14.39522261 48.66183128 -6.68384644 -34.21706527
2639730000 -1.06951927 -21.56008972 -12.40280889 58.77271628 -14.38808792 48.79691978 -6.67405232 -34.26399257
2644720000 -1.06321592 -21.53720289 -12.41594620 58.73594940 -14.37748433 48.74281287 -6.69001557 -34.36194226
2649710000 -1.08174622 -21.49049484 -12.41491565 58.82365729 -14.35574022 48.79525909 -6.68816646 -34.38991174
2654700000 -1.09582523 -21.58109839 -12.39213777 58.68707790 -14.36182016 48.69190455 -6.68807965 -34.49135524
2659690000 -1.09569246 -21.65163036 -12.40219625 58.63209917 -14.34347613 48.68713774 -6.69115822 -34.59612948
2664680000 -1.11281325 -21.59537074 -12.41297374 58.64983783 -14.33220527 48.76951720 -6.69409396 -34.63572846
2669670000 -1.10494902 -21.65351526 -12.40806252 58.64919935 -14.31760017 48.60352332 -6.68180394 -34.69893742
2674660000 -1.10547719 -21.67162066 -12.41362879 58.68719750 -14.29564341 48.71674508 -6.68688509 -34.70183301
2679650000 -1.09984444 -21.72741083 -12.38471558 58.54791067 -14.30054018 48.58992749 -6.69593552 -34.63828193
2684640000 -1.09562264 -21.79798219 -12.38821617 58.68069041 -14.27623975 48.61291267 -6.68803556 -34.85749471
2689630000 -1.08654498 -21.89154047 -12.36929948 58.67664190 -14.27869431 48.45905786 -6.68017478 -34.85278501
2694620000 -1.08615681 -21.88622562 -12.36645142 58.35330758 -14.23814407 48.47187239 -6.68745248 -34.94193836
2699610000 -1.09437284 -21.93958758 -12.35136087 58.42390876 -14.25866450 48.45881024 -6.68304753 -34.81210120
2704600000 -1.08143156 -21.95520271 -12.34452378 58.31865914 -14.23544412 48.43870485 -6.68168173 -34.85658858
2709590000 -1.08702630 -22.02831287 -12.33594649 58.15007904 -14.21823202 48.46011632 -6.70084206 -34.86641340
2714580000 -1.07535335 -22.09187622 -12.29579559 58.07878672 -14.20564224 48.35617152 -6.70620563 -34.87952205
2719570000 -1.08690718 -22.04629244 -12.34742655 58.17703880 -14.20803543 48.26464054 -6.69483466 -34.96568741
2724560000 -1.08827961 -22.06322594 -12.34671221 58.09165657 -14.19441542 48.31071809 -6.71448899 -34.95890037
2729550000 -1.09525501 -22.14757276 -12.32693751 57.95318620 -14.21061382 48.11631273 -6.72597143 -34.82376536
2734540000 -1.10454472 -22.08063173 -12.33292264 57.89340618 -14.16617305 48.17392325 -6.72027428 -34.92403240
2739530000 -1.10786241 -22.01576487 -12.31289458 58.07422700 -14.18559561 48.23619380 -6.72684611 -35.12769440
2744520000 -1.11321958 -22.11603349 -12.32196948 57.76315089 -14.16508170 48.08671197 -6.73102868 -35.11479179
2749510000 -1.12396245 -22.07143011 -12.31923200 57.83760262 -14.15516078 48.11484607 -6.74579995 -35.18762364
2754500000 -1.13825526 -22.08858763 -12.30170531 57.82871349 -14.16475446 48.12663084 -6.74308456 -35.29711584
2759490000 -1.14722395 -22.13759036 -12.31908523 57.53137686 -14.14733047 48.11612944 -6.75910801 -35.29128988
2764480000 -1.15857920 -22.10452208 -12.31797236 57.66559204 -14.14589241 48.21996920 -6.76715725 -35.34727062
2769470000 -1.16696835 -22.11761705 -12.27919463 57.74894493 -14.14285050 48.18996494 -6.76276007 -35.40443914
2774460000 -1.16205588 -22.20104528 -12.29775619 57.59792184 -14.11510902 48.09252646 -6.74681597 -35.42545223
2779450000 -1.16301259 -22.16632596 -12.29588022 57.60366465 -14.11378750 48.11840254 -6.76923343 -35.59451359
2784440000 -1.18325191 -22.24957948 -12.29190061 57.59054801 -14.07373533 47.88455554 -6.73594965 -35.50592631
2789430000 -1.15756190 -22.24665395 -12.27182581 57.50090951 -14.08353380 48.13276037 -6.74288436 -35.57334658
2794420000 -1.16086703 -22.37486767 -12.25714913 57.44541444 -14.06062095 48.09756829 -6.74443927 -35.66258417
2799410000 -1.15761060 -22.42691289 -12.26219060 57.50167116 -14.04083673 47.93452657 -6.74156139 -35.54226420
2804400000 -1.15073060 -22.50265003 -12.23098864 57.50479142 -14.03894540 47.88250605 -6.74383162 -35.67225816
2809390000 -1.14521358 -22.54884009 -12.24817886 57.37792332 -14.04318122 47.85534614 -6.75964138 -35.67241345
2814380000 -1.14911309 -22.54270521 -12.23803068 57.21075436 -14.04684006 47.79435774 -6.75401077 -35.65529798
2819370000 -1.15186915 -22.55967749 -12.24399073 57.17646230 -14.02648150 47.83870228 -6.75983473 -35.69988623
2824360000 -1.15754909 -22.57136390 -12.24306853 56.98408702 -14.00662158 47.69523266 -6.75479595 -35.72025470
2829350000 -1.15504233 -22.64181455 -12.22245240 57.05102730 -14.00798749 47.67122454 -6.75703773 -35.77869928
2834340000 -1.16121357 -22.71736503 -12.23700640 56.95960067 -13.99025889 47.56800425 -6.77798138 -35.88778408
2839330000 -1.16006893 -22.65214487 -12.25429908 56.90953339 -13.97370908 47.62367442 -6.77972184 -35.68316175
2844320000 -1.15236794 -22.62985107 -12.21314310 56.88309022 -13.95952618 47.66606938 -6.78540212 -35.78527549
2849310000 -1.18004160 -22.64633490 -12.22747163 56.89236567 -13.96427613 47.57874452 -6.78012214 -35.89380854
2854300000 -1.18687455 -22.60096391 -12.21845991 56.74331501 -13.96160237 47.53045352 -6.80697740 -35.96944186
2859290000 -1.19459091 -22.63494360 -12.23530285 56.68291781 -13.96048728 47.52921705 -6.80577088 -36.04012884
2864280000 -1.19972777 -22.68442965 -12.20353573 56.68291796 -13.96590824 47.64498755 -6.81978923 -36.07426012
2869270000 -1.20598418 -22.68664190 -12.21283450 56.63575716 -13.92911656 47.56412230 -6.81477242 -36.14783749
2874260000 -1.21189765 -22.67648455 -12.20527872 56.67108652 -13.93404712 47.45926040 -6.81708375 -36.20408781
2879250000 -1.22065995 -22.73341360 -12.19552378 56.57132885 -13.92390901 47.54424344 -6.83094462 -36.29172399
2884240000 -1.22792248 -22.80041436 -12.19280040 56.68850567 -13.89283276 47.60335727 -6.80706933 -36.31832457
2889230000 -1.23237341 -22.87659145 -12.19548383 56.65819213 -13.89115335 47.45957081 -6.80010628 -36.34828762
2894220000 -1.22786353 -22.80511199 -12.18276453 56.69949496 -13.87071955 47.61206553 -6.80891248 -36.41491349
2899210000 -1.21890904 -22.89209686 -12.16471076 56.60888443 -13.86271546 47.43069663 -6.79598415 -36.45204715
2904200000 -1.22088617 -22.91586232 -12.14783177 56.51334242 -13.84456509 47.47865206 -6.79246927 -36.43728528
2909190000 -1.21400381 -22.96983510 -12.16217294 56.54259404 -13.85300611 47.36439955 -6.79801354 -36.54896687
2914180000 -1.21141983 -23.05621200 -12.13009458 56.44958054 -13.83493469 47.30740525 -6.80921689 -36.57129279
2919170000 -1.20675922 -23.08133156 -12.12691084 56.40887664 -13.81874867 47.23607091 -6.80320339 -36.56747717
2924160000 -1.20396439 -23.09476028 -12.13276357 56.24765461 -13.80797062 47.28012359 -6.81315347 -36.64294681
2929150000 -1.21875626 -23.15859479 -12.15638499 56.21927829 -13.81288596 47.20162162 -6.81989323 -36.56460947
2934140000 -1.20727489 -23.15942596 -12.12826563 56.15661546 -13.80271752 47.19753935 -6.81832384 -36.63979723
2939130000 -1.21074458 -23.15641065 -12.13403703 56.16849929 -13.79932459 47.24327641 -6.81415627 -36.54381700
2944120000 -1.20992004 -23.19061622 -12.11834817 56.08702177 -13.77003076 46.97067503 -6.83586013 -36.51107321
2949110000 -1.21990403 -23.19412838 -12.12837037 56.01441251 -13.77856945 47.04948389 -6.83641789 -36.61445022
2954100000 -1.24006442 -23.12023390 -12.11953329 55.94407990 -13.75613709 47.15579650 -6.83383314 -36.70914156
2959090000 -1.24056416 -23.21247367 -12.10483389 55.95768327 -13.77278811 46.94366636 -6.85619065 -36.81386360
2964080000 -1.23418015 -23.17211938 -12.09411968 55.93255892 -13.74550336 46.94666000 -6.85551222 -36.79644956
2969070000 -1.25803857 -23.20033184 -12.08425062 55.92070383 -13.75456849 47.11459827 -6.86741312 -36.93933145
2974060000 -1.26826500 -23.13948203 -12.10667559 55.90786544 -13.74679278 47.19348639 -6.87142500 -36.94721404
2979050000 -1.27856239 -23.19435343 -12.11655910 55.78582300 -13.73163037 47.05081745 -6.87670378 -37.07498898
2984040000 -1.27171793 -23.26191678 -12.07952394 55.75117033 -13.72412167 47.01018366 -6.87777770 -36.99023675
2989030000 -1.28028106 -23.32055271 -12.06822174 55.91992107 -13.71482161 46.98374129 -6.87398398 -37.08361701
2994020000 -1.27978437 -23.37592912 -12.08702463 55.75463905 -13.69592379 47.00553181 -6.88654011 -37.18394607
2999010000 -1.28946613 -23.38088990 -12.06035562 55.84448151 -13.68992436 47.02156247 -6.87097246 -37.20071097
3004000000 -1.29751050 -23.44366066 -12.05272572 55.74279441 -13.67792955 46.94960715 -6.87050645 -37.19094684
3008990000 -1.27848735 -23.50637220 -12.03702613 55.72268289 -13.66910717 46.89647417 -6.87600553 -37.21275186
3013980000 -1.28089808 -23.55949252 -12.05240280 55.62544626 -13.64395619 46.95356714 -6.87854677 -37.28183550
3018970000 -1.27820886 -23.58091497 -12.04040996 55.59572157 -13.66501517 46.93770350 -6.86679559 -37.32000375
3023960000 -1.27653585 -23.64706365 -12.02861828 55.51991773 -13.62310819 46.89037142 -6.86580081 -37.39397810
3028950000 -1.27458876 -23.69029939 -12.04534075 55.44781996 -13.62996339 46.73483073 -6.88077096 -37.36975216
3033940000 -1.26535006 -23.67920318 -12.02301638 55.37417879 -13.62360469 46.79776831 -6.88937876 -37.34845887
3038930000 -1.26493464 -23.77469147 -12.04977325 55.29407477 -13.59581954 46.74832422 -6.89782298 -37.35419381
3043920000 -1.26454837 -23.76749835 -12.02147728 55.12807935 -13.60333310 46.61772155 -6.90569530 -37.50036337
3048910000 -1.26982177 -23.78334363 -12.03058543 55.27110509 -13.60319741 46.65794306 -6.89322298 -37.38078217
3053900000 -1.27899629 -23.75015100 -12.02371294 55.13566681 -13.58988564 46.57308743 -6.91608945 -37.41066191
3058890000 -1.28371687 -23.74436534 -12.01050897 55.22744971 -13.57634948 46.48590404 -6.90496465 -37.49243494
3063880000 -1.28822169 -23.67631660 -11.97828326 55.06903221 -13.56289473 46.63221465 -6.91321062 -37.47660338
3068870000 -1.28602909 -23.69644642 -11.98526425 54.99683268 -13.57589263 46.51669332 -6.92790534 -37.60567031
3073860000 -1.30651941 -23.73966368 -11.99540051 54.98735476 -13.54963138 46.57875563 -6.90963962 -37.53164731
3078850000 -1.31395820 -23.74656623 -11.98388681 55.04354322 -13.53181605 46.52200053 -6.93351369 -37.62753093
3083840000 -1.30855602 -23.78401290 -11.96769885 54.82251743 -13.54137750 46.54636985 -6.93356709 -37.67870993
3088830000 -1.32298908 -23.84358744 -11.97868114 54.88393605 -13.51685216 46.44307583 -6.93805144 -37.81528181
3093820000 -1.33000665 -23.82514814 -11.97548769 54.87188644 -13.50112925 46.57379714 -6.92565993 -37.84723905
3098810000 -1.33332443 -23.91725243 -11.97939805 54.92900077 -13.49512514 46.38059973 -6.94232638 -37.81892699
3103800000 -1.34189234 -23.95282572 -11.96881096 54.90098832 -13.48385881 46.45604253 -6.92052191 -38.01600348
3108790000 -1.33572600 -24.02216021 -11.95627587 54.82143342 -13.48609767 46.35229890 -6.93873244 -37.94094624
3113780000 -1.34422368 -24.09476425 -11.94733135 54.82197505 -13.48029808 46.37565017 -6.95171273 -38.03858811
3118770000 -1.34146593 -24.14293349 -11.94043136 54.70265099 -13.44315572 46.37800624 -6.92709139 -38.07702109
3123760000 -1.32151937 -24.16413288 -11.91827955 54.64540459 -13.43702022 46.26497942 -6.92482209 -38.08140530
3128750000 -1.32367675 -24.26583362 -11.92974135 54.54512112 -13.42668363 46.27738849 -6.94902212 -38.14849390
3133740000 -1.32346204 -24.26143333 -11.90857884 54.55514275 -13.43178627 46.12894110 -6.95225701 -38.25513834
3138730000 -1.32815112 -24.32575601 -11.90296910 54.47063735 -13.41070395 46.14125825 -6.93225140 -38.07619539
3143720000 -1.31128187 -24.29055821 -11.91783867 54.51535825 -13.42041477 46.18294365 -6.92665923 -38.16975231
3148710000 -1.31949112 -24.26925858 -11.89574500 54.31159520 -13.39953442 46.09005479 -6.94555653 -38.18623118
3153700000 -1.32439510 -24.35558848 -11.90634642 54.30002299 -13.40248922 45.93730033 -6.92721300 -38.23697510
3158690000 -1.31832663 -24.30416121 -11.91248261 54.27667937 -13.39083996 46.05027251 -6.94217765 -38.21401329
3163680000 -1.32637690 -24.32603450 -11.87535017 54.25977057 -13.38903069 45.77436070 -6.93985281 -38.30621559
3168670000 -1.33667879 -24.35700055 -11.87989634 54.24767981 -13.36066856 45.87120639 -6.95712347 -38.34718829
3173660000 -1.33783808 -24.30372291 -11.88433431 54.30442028 -13.36779803 45.98672270 -6.96445067 -38.36223569
3178650000 -1.34719166 -24.40033601 -11.89363377 54.09577142 -13.35559567 46.00720128 -6.97086915 -38.37542353
3183640000 -1.35016369 -24.31063146 -11.89028015 54.03227776 -13.34854273 45.92940185 -6.97146056 -38.55618413
3188630000 -1.35935125 -24.34346033 -11.87732897 53.99278734 -13.33161003 46.02092657 -6.96248232 -38.55245214
3193620000 -1.37575612 -24.37412834 -11.87661186 54.09145883 -13.33578412 45.83738576 -6.96891241 -38.54329200
3198610000 -1.36944799 -24.46047161 -11.85808689 53.96983303 -13.29955702 45.73740304 -6.96937850 -38.57059586
3203600000 -1.37835967 -24.51305454 -11.86683213 53.95174988 -13.30971290 45.75154085 -6.97842632 -38.61548284
3208590000 -1.38642166 -24.58707146 -11.85928133 53.97025785 -13.29856180 45.81471680 -6.98390171 -38.72475028
3213580000 -1.38652226 -24.59759383 -11.85117800 53.94354496 -13.29706773 45.80917432 -6.97342038 -38.79417640
3218570000 -1.38382632 -24.76135322 -11.84062412 53.88290263 -13.29339208 45.77733081 -6.99921391 -38.74083657
3223560000 -1.38882633 -24.76201932 -11.81718906 53.88670506 -13.28227879 45.64637829 -6.99836274 -38.76157545
3228550000 -1.37178103 -24.88360148 -11.80278199 53.83639103 -13.27560313 45.70789868 -6.98826090 -38.84068894
3233540000 -1.37360824 -24.87495193 -11.78732797 53.65939794 -13.25756830 45.69653083 -6.99371293 -38.94870218
3238530000 -1.37469228 -24.90546600 -11.81742980 53.70976441 -13.25712423 45.60988017 -6.99389956 -38.96209384
3243520000 -1.36421864 -25.00874864 -11.79346274 53.53099165 -13.25371371 45.61079267 -7.00795871 -38.95453358
3248510000 -1.36461441 -25.03445755 -11.78035579 53.56046619 -13.24575209 45.66695279 -7.00251521 -39.03625429
3253500000 -1.36897464 -24.98620159 -11.79073425 53.33346513 -13.22618520 45.63177203 -7.00931210 -39.00732203
3258490000 -1.35587950 -25.02439674 -11.79300617 53.42111128 -13.23001323 45.47491283 -7.01002274 -39.02507763
3263480000 -1.35393157 -25.00477987 -11.80232101 53.39557297 -13.20457827 45.55802502 -7.00935039 -39.09696107
3268470000 -1.37417546 -25.01337716 -11.80036269 53.31233928 -13.21522547 45.44212224 -7.01503034 -39.11196181
3273460000 -1.37408538 -24.98594409 -11.75899368 53.26430766 -13.18583064 45.48491122 -7.02814005 -39.20316269
3278450000 -1.39115413 -24.99123754 -11.77214364 53.22304439 -13.19211429 45.32699778 -7.01910272 -39.18182104
3283440000 -1.38988886 -25.03038042 -11.77082052 53.28438298 -13.18268268 45.21834548 -7.02661373 -39.13852796
3288430000 -1.39784707 -25.03850955 -11.75594065 53.26777016 -13.16625178 45.29323232 -7.02600789 -39.21792324
3293420000 -1.40482788 -24.99802204 -11.77566551 53.21308946 -13.16262764 45.36453137 -7.03968672 -39.26230380
3298410000 -1.41259780 -25.12373187 -11.74703113 53.08763236 -13.16518546 45.34436701 -7.04437282 -39.39000138
3303400000 -1.41955126 -25.13248030 -11.74812312 53.02265786 -13.14490073 45.21738050 -7.05249495 -39.41240205
3308390000 -1.41737627 -25.11525532 -11.73719365 53.09933146 -13.11979670 45.29330931 -7.04970742 -39.44019193
3313380000 -1.41903769 -25.31435170 -11.72774467 53.09040959 -13.12547553 45.15486141 -7.04910182 -39.48082683
3318370000 -1.43060378 -25.33198116 -11.71673335 52.86860108 -13.13048039 45.22642834 -7.04261942 -39.52329911
3323360000 -1.42739430 -25.46825354 -11.72021556 52.93247326 -13.09227020 45.09746880 -7.04955821 -39.51493610
3328350000 -1.41621445 -25.44730899 -11.69872351 52.89941375 -13.08130440 45.07536739 -7.04568375 -39.54838534
3333340000 -1.41787957 -25.53690494 -11.69569109 52.72952790 -13.08760121 45.05852114 -7.04346825 -39.69072782
3338330000 -1.41975985 -25.62449185 -11.68500179 52.63345978 -13.09690907 45.02743221 -7.05465875 -39.50511646
3343320000 -1.41160036 -25.71608234 -11.71478173 52.57559285 -13.06026769 45.03894325 -7.04997406 -39.58369857
3348310000 -1.40731627 -25.66697782 -11.69760687 52.67895069 -13.05385873 44.93473427 -7.04495571 -39.75249392
3353300000 -1.41393871 -25.71087659 -11.70809455 52.45807462 -13.06333841 44.88204759 -7.05684104 -39.67034263
3358290000 -1.41161223 -25.70757869 -11.69171159 52.49622975 -13.06319274 44.90664198 -7.04681528 -39.74648179
3363280000 -1.40968983 -25.71500956 -11.69839571 52.59966170 -13.05427016 44.86831371 -7.06437289 -39.65900518
3368270000 -1.41190232 -25.78520604 -11.68336383 52.47221083 -13.04534758 44.78662188 -7.07736298 -39.75900833
3373260000 -1.40961065 -25.77013262 -11.67277459 52.49918580 -13.04321649 44.78924842 -7.08212984 -39.90760186
3378250000 -1.41731428 -25.77612214 -11.67113810 52.38510855 -13.01305271 44.62025740 -7.06482354 -39.82614075
3383240000 -1.42153461 -25.80625927 -11.65602285 52.40739397 -13.01956618 44.60978888 -7.07201662 -39.88967203
3388230000 -1.43352144 -25.75289424 -11.66058467 52.36147192 -12.99240600 44.61834598 -7.08030823 -39.93047962
3393220000 -1.43752510 -25.75725835 -11.65244828 52.22141595 -12.98849958 44.54306166 -7.08538290 -39.98248400
3398210000 -1.43999479 -25.79926241 -11.64065836 52.16369574 -13.01495983 44.67272458 -7.08293727 -39.92728288
3403200000 -1.44503651 -25.80944659 -11.64394984 52.25011196 -12.98991864 44.65828515 -7.10024957 -40.04253492
3408190000 -1.46172614 -25.90434988 -11.64681716 52.21524182 -12.97833795 44.62922944 -7.09660423 -40.15451309
3413180000 -1.45983707 -25.96866884 -11.63171972 52.24486219 -12.98430493 44.61159849 -7.11506238 -40.15429730
3418170000 -1.46168053 -26.02028051 -11.62916611 52.01591520 -12.95025666 44.50031423 -7.11798191 -40.18569591
3423160000 -1.47079961 -26.07221600 -11.63261273 52.08951770 -12.94739535 44.49522080 -7.09499269 -40.29235635
3428150000 -1.46787647 -26.17704308 -11.60809908 51.99472903 -12.95233394 44.44432483 -7.12013161 -40.25452305
3433140000 -1.47127159 -26.22656756 -11.61501965 51.90780559 -12.95215110 44.58004192 -7.12226343 -40.34339970
3438130000 -1.47336278 -26.25192675 -11.60951163 51.82119359 -12.95817249 44.45208939 -7.11386361 -40.34867531
3443120000 -1.47161010 -26.37513350 -11.58760446 51.74624681 -12.91644377 44.30117414 -7.09430458 -40.41240975
3448110000 -1.46104181 -26.43584071 -11.60993702 51.81724644 -12.90903563 44.34809654 -7.10410173 -40.35737799
3453100000 -1.46168746 -26.48977216 -11.60124580 51.65782353 -12.90762771 44.23053800 -7.10991362 -40.38210379
3458090000 -1.45671599 -26.49207150 -11.58913268 51.78745086 -12.90533844 44.19723045 -7.11322653 -40.43699840
3463080000 -1.45253143 -26.51199425 -11.57807445 51.60186647 -12.89373360 44.15700603 -7.12181014 -40.43693910
3468070000 -1.44689011 -26.57505166 -11.58545664 51.62453834 -12.89005002 44.15311828 -7.12898878 -40.49573949
3473060000 -1.45215397 -26.56367288 -11.59701781 51.46090566 -12.88778378 44.19571171 -7.12597820 -40.61043671
3478050000 -1.44684722 -26.55352152 -11.57599909 51.49958685 -12.87391065 44.05486916 -7.13286553 -40.59324861
3483040000 -1.45469293 -26.59275509 -11.56422614 51.36569314 -12.89475837 44.01838581 -7.13183789 -40.53450856
3488030000 -1.46990198 -26.58797501 -11.56620668 51.39482681 -12.86014851 43.94291802 -7.13487366 -40.64263567
3493020000 -1.46093615 -26.54046760 -11.56042378 51.56912341 -12.85720520 44.14611001 -7.13348831 -40.60591377
3498010000 -1.47902859 -26.56826127 -11.54864379 51.31832173 -12.85246192 44.11132714 -7.12329356 -40.71480250
3503000000 -1.48819650 -26.58453053 -11.56692803 51.46043984 -12.83887126 43.91142845 -7.13100481 -40.67869049
3507990000 -1.49357998 -26.64036134 -11.54201925 51.21529734 -12.85370084 43.96087302 -7.14219132 -40.81716815
3512980000 -1.50335817 -26.58040562 -11.56190667 51.17310877 -12.83676437 43.92935297 -7.14991278 -40.87706739
3517970000 -1.50325531 -26.67068505 -11.57154087 51.19002271 -12.80470105 43.87844604 -7.13105362 -40.86898944
3522960000 -1.50014760 -26.77871903 -11.55495018 51.26556315 -12.79661019 43.87276680 -7.15627873 -40.85765896
3527950000 -1.51201353 -26.84339463 -11.53404300 51.09448484 -12.80489596 43.98052372 -7.14911005 -40.90408349
3532940000 -1.51113549 -26.93319868 -11.54421387 50.98931345 -12.79387153 43.80253443 -7.14831821 -40.93632156
3537930000 -1.51456053 -27.03165617 -11.52688353 50.96910959 -12.79795856 43.73385900 -7.14309822 -41.07002027
3542920000 -1.51635566 -27.11581041 -11.50778939 51.09129349 -12.80139850 43.80679478 -7.14258879 -41.16906873
3547910000 -1.51023405 -27.17724068 -11.50587969 50.99889405 -12.76841984 43.66041759 -7.13190888 -41.01897717
3552900000 -1.50966765 -27.23995714 -11.49795628 50.81132197 -12.75929338 43.64414836 -7.14277945 -41.07747795
3557890000 -1.49569555 -27.26059594 -11.50235426 50.84439799 -12.74731447 43.72453656 -7.14906819 -41.15667274
3562880000 -1.49379675 -27.24416112 -11.51146821 50.74735405 -12.74374284 43.48950717 -7.15576356 -41.19068103
3567870000 -1.50339384 -27.33178245 -11.50807563 50.58631211 -12.75495340 43.50652345 -7.15343407 -41.28878894
3572860000 -1.49404076 -27.38409343 -11.51242875 50.70280965 -12.71870301 43.41616906 -7.16592538 -41.13436371
3577850000 -1.49098174 -27.35572563 -11.47914215 50.72441223 -12.72353859 43.49682433 -7.16476725 -41.23006546
3582840000 -1.49061581 -27.41478425 -11.49281056 50.75050728 -12.71922555 43.46203839 -7.17775033 -41.23994030
3587830000 -1.50409868 -27.38280866 -11.49559052 50.51042056 -12.72739054 43.48849462 -7.16941364 -41.40820987
3592820000 -1.51295246 -27.42578195 -11.48459583 50.54873341 -12.72252132 43.29635054 -7.16718857 -41.38512884
3597810000 -1.51317292 -27.42614305 -11.48457663 50.54813417 -12.70955291 43.31502512 -7.17279023 -41.34504359
3602800000 -1.51628260 -27.43512227 -11.47768816 50.43782060 -12.71773771 43.36177647 -7.18404995 -41.34576176
3607790000 -1.52310823 -27.38276016 -11.46848923 50.44924892 -12.71147239 43.32272023 -7.18523629 -41.54753160
3612780000 -1.52744612 -27.41612707 -11.47302044 50.45392786 -12.69853609 43.24589605 -7.19715551 -41.62698059
3617770000 -1.54190319 -27.49052257 -11.46038896 50.29228276 -12.69465040 43.26987686 -7.18877169 -41.67441948
3622760000 -1.54731237 -27.42137889 -11.46300639 50.42421242 -12.69863944 43.21090277 -7.20575012 -41.56898321
3627750000 -1.54367556 -27.58452489 -11.45735802 50.26947143 -12.66899029 43.19974631 -7.18944855 -41.71257864
3632740000 -1.54756989 -27.61547326 -11.45642386 50.22277794 -12.67595040 43.16203174 -7.20234499 -41.74408308
3637730000 -1.55886323 -27.67145192 -11.44198333 50.20799874 -12.66476318 43.22657870 -7.18907759 -41.84025998
3642720000 -1.55733353 -27.73889436 -11.43539600 50.15877757 -12.64781119 43.10017242 -7.18928566 -41.81627915
3647710000 -1.54856540 -27.85886976 -11.42201805 50.15951089 -12.63608871 43.07957784 -7.19922859 -41.78468676
3652700000 -1.55569305 -27.95951986 -11.42362022 50.03962818 -12.63616505 43.12714737 -7.20286999 -41.72530110
3657690000 -1.55463631 -27.99580967 -11.42439945 50.02051233 -12.63748052 42.97659942 -7.21128530 -41.93597656
3662680000 -1.54439388 -28.05062810 -11.41558894 50.04461689 -12.61723640 43.07809642 -7.20263503 -41.89989848
3667670000 -1.55049159 -28.11098008 -11.41429572 49.97273066 -12.62588745 42.90452664 -7.20733927 -41.89918748
3672660000 -1.54445188 -28.13304294 -11.42931529 49.90903379 -12.60380568 43.00311396 -7.20205825 -41.88644130
3677650000 -1.54290739 -28.15828490 -11.42477991 49.99052017 -12.60823665 42.98975460 -7.21739733 -41.85905838
3682640000 -1.54074897 -28.16323879 -11.41192291 49.86672587 -12.59827802 42.95059730 -7.20890928 -41.95334122
3687630000 -1.54019620 -28.21662338 -11.39404184 49.90185630 -12.57300819 42.89659125 -7.21931437 -42.04089000
3692620000 -1.55386365 -28.21505145 -11.41319062 49.75254623 -12.58743023 42.74233638 -7.20368114 -42.01127868
3697610000 -1.55305762 -28.19951182 -11.39170145 49.73939117 -12.59322882 42.82515653 -7.24441237 -42.07242963
3702600000 -1.54820698 -28.22050783 -11.37316874 49.58980012 -12.58012400 42.67466304 -7.24521155 -42.14228879
3707590000 -1.55457506 -28.15931452 -11.37777864 49.67440418 -12.58324600 42.79987697 -7.24003696 -42.19483262
3712580000 -1.55763211 -28.16468818 -11.37958371 49.66584973 -12.56235239 42.71161904 -7.22734383 -42.32333544
3717570000 -1.56625006 -28.24340355 -11.38018028 49.49134528 -12.55745539 42.71759435 -7.23911604 -42.27450061
3722560000 -1.56602984 -28.27677988 -11.37711596 49.62348845 -12.54691701 42.70180381 -7.23249238 -42.24516324
3727550000 -1.57928874 -28.27165796 -11.37026898 49.59975588 -12.55206577 42.77360686 -7.24247445 -42.25284408
3732540000 -1.59704515 -28.32879685 -11.38590437 49.42724589 -12.54472804 42.53602110 -7.25543245 -42.36049546
3737530000 -1.58923913 -28.38658391 -11.38302731 49.51359040 -12.53717477 42.67831553 -7.25689147 -42.38801990
3742520000 -1.59885456 -28.49249524 -11.35621626 49.43248151 -12.52945761 42.63660339 -7.25772473 -42.37770568
3747510000 -1.59873248 -28.54735789 -11.34767692 49.48447273 -12.51622066 42.65446921 -7.25469395 -42.41071860
3752500000 -1.59623209 -28.58645012 -11.33475076 49.36493172 -12.50366322 42.52123832 -7.24956469 -42.42948360
3757490000 -1.60379831 -28.68144672 -11.35384270 49.36588746 -12.52042756 42.48076158 -7.26676488 -42.51843113
3762480000 -1.59775959 -28.74038942 -11.33090430 49.20765611 -12.48868738 42.44710422 -7.26227385 -42.55723142
3767470000 -1.60079823 -28.77642292 -11.32854533 49.32688625 -12.49604830 42.41886514 -7.26276322 -42.56893123
3772460000 -1.58278605 -28.86883481 -11.33234397 49.09336806 -12.48698205 42.51309425 -7.25839992 -42.53725771
3777450000 -1.57882582 -28.89971169 -11.31701463 49.01312838 -12.47115721 42.38623826 -7.27366340 -42.61016616
3782440000 -1.58418204 -28.95266162 -11.31782972 48.93969972 -12.46171033 42.31344067 -7.26284190 -42.74287987
3787430000 -1.59083707 -28.90298463 -11.32270037 49.02822094 -12.46370722 42.38726904 -7.27770442 -42.67687093
3792420000 -1.58330461 -28.93396511 -11.32510206 48.95262342 -12.47864731 42.24320499 -7.26655636 -42.73881171
3797410000 -1.57893959 -29.01014745 -11.33109731 48.87517921 -12.44551535 42.11163334 -7.27252146 -42.79022165
3802400000 -1.58819445 -29.03171869 -11.31973181 48.84639823 -12.45015746 42.12674600 -7.27657195 -42.87854237
3807390000 -1.59645570 -29.01784014 -11.29925890 48.80355380 -12.44294676 42.14373144 -7.27797157 -42.90266641
3812380000 -1.60392478 -28.97846211 -11.30321558 48.86610205 -12.44099262 42.07044937 -7.28001008 -42.88018187
3817370000 -1.60468007 -28.98176704 -11.29787443 48.77118388 -12.45151152 42.12435527 -7.27901318 -42.84708589
3822360000 -1.61435962 -28.96621959 -11.29994744 48.81162191 -12.43327997 42.19801467 -7.28987342 -42.82693284
3827350000 -1.61620861 -29.05951227 -11.28560040 48.64032338 -12.41211584 41.94536525 -7.28919449 -42.94619326
3832340000 -1.62386515 -29.06571063 -11.27943218 48.62109286 -12.41210150 42.05829203 -7.28891039 -43.01638999
3837330000 -1.63568433 -29.11220478 -11.31082323 48.63411065 -12.41848583 42.12999991 -7.29689683 -43.03646795
3842320000 -1.63459697 -29.06611394 -11.29140483 48.65428332 -12.41573051 42.00120663 -7.31737968 -43.04288170
3847310000 -1.63527678 -29.14750474 -11.27569421 48.63188377 -12.41322355 42.09680776 -7.30069785 -43.06096526
3852300000 -1.64744477 -29.22341841 -11.27241374 48.53729006 -12.38204813 41.98320879 -7.30541213 -43.14067993
3857290000 -1.65033478 -29.26700658 -11.28098898 48.48394018 -12.37827550 42.04730170 -7.32124004 -43.14596834
3862280000 -1.64736140 -29.38111010 -11.26327417 48.48138213 -12.37489489 41.99547755 -7.29408722 -43.16804731
3867270000 -1.64771678 -29.42138509 -11.24800326 48.31056582 -12.37938647 41.88011747 -7.33270469 -43.15863665
3872260000 -1.64071096 -29.43963191 -11.25609866 48.29862636 -12.36147340 41.89942798 -7.31189273 -43.31591144
3877250000 -1.63552577 -29.48302110 -11.23490766 48.21444732 -12.35881496 41.86642127 -7.33166375 -43.37083173
3882240000 -1.64260256 -29.60787559 -11.24045357 48.19715781 -12.35644134 41.74901163 -7.31151645 -43.34582872
3887230000 -1.63613694 -29.65544023 -11.25191372 48.19599241 -12.33748710 41.79871250 -7.31450322 -43.40771980
3892220000 -1.63023914 -29.61165480 -11.25176926 48.24172772 -12.33595081 41.69972122 -7.31191567 -43.37215479
3897210000 -1.64882045 -29.61834678 -11.25624981 48.12345496 -12.33912559 41.65178048 -7.31536210 -43.39473089
3902200000 -1.63618061 -29.72449432 -11.23276274 48.20072370 -12.32909495 41.53901376 -7.32415647 -43.47381157
3907190000 -1.64195965 -29.65594757 -11.25023806 48.14357523 -12.33941186 41.63019735 -7.32183512 -43.47234449
3912180000 -1.64676567 -29.68957551 -11.23612214 48.12992434 -12.31053844 41.47250109 -7.32027841 -43.52778981
3917170000 -1.65052258 -29.62779129 -11.23085881 48.05669851 -12.32197218 41.51208212 -7.33041383 -43.54524855
3922160000 -1.64781238 -29.62592584 -11.20300556 47.88352544 -12.30926473 41.51857942 -7.34379879 -43.59690734
3927150000 -1.65236357 -29.67982958 -11.22590085 47.98424705 -12.30723183 41.45817865 -7.33344327 -43.53832087
3932140000 -1.66197296 -29.64566418 -11.19760825 47.81108262 -12.31551200 41.46751347 -7.35185852 -43.65167810
3937130000 -1.67356191 -29.68322648 -11.21041628 47.94152921 -12.30407449 41.53995486 -7.35192653 -43.69718508
3942120000 -1.68385746 -29.76645558 -11.21041108 47.88610051 -12.29024584 41.48348300 -7.35075164 -43.77070694
3947110000 -1.67937658 -29.77460314 -11.21384034 47.83535180 -12.29788686 41.50107212 -7.35160315 -43.78452435
3952100000 -1.68966637 -29.75038709 -11.22355871 47.72744227 -12.28768407 41.36445328 -7.35924629 -43.84201759
3957090000 -1.68994236 -29.83707239 -11.19979305 47.83709842 -12.27054141 41.39614294 -7.35964072 -43.82964925
3962080000 -1.69862992 -29.89867232 -11.20130874 47.69474690 -12.26148404 41.36887355 -7.36413928 -43.95128340
3967070000 -1.69471886 -29.97852242 -11.18508337 47.70234344 -12.26640127 41.25930777 -7.34573489 -43.95388423
3972060000 -1.69028600 -29.96161826 -11.17051832 47.60881694 -12.25146472 41.20412931 -7.35959405 -44.01451164
3977050000 -1.69506309 -30.10232882 -11.17874842 47.66052204 -12.25607348 41.13903673 -7.35203086 -43.98009351
3982040000 -1.68695049 -30.08053722 -11.18250841 47.44059188 -12.24218941 41.17753194 -7.37070854 -43.98769778
3987030000 -1.68449476 -30.14696234 -11.17010465 47.53429899 -12.25234492 41.21373325 -7.37318376 -44.01295168
3992020000 -1.68881316 -30.24232032 -11.16583130 47.48277763 -12.24068994 41.21539369 -7.36665384 -43.96988362
3997010000 -1.69074472 -30.25607969 -11.16921769 47.37683150 -12.23478413 41.05597400 -7.36628987 -44.11234533
4002000000 -1.67766590 -30.20509198 -11.16000283 47.37357962 -12.22446702 41.02375709 -7.37144948 -44.03089861
4006990000 -1.67536154 -30.28377773 -11.15409951 47.38395540 -12.22413906 41.11380859 -7.38426136 -44.10589310
4011980000 -1.67823181 -30.31193916 -11.15369418 47.21247324 -12.20278782 41.10492016 -7.38285917 -44.10740583
4016970000 -1.69537470 -30.24830338 -11.14133595 47.19004304 -12.20723476 40.94582143 -7.38070528 -44.29941968
4021960000 -1.68396363 -30.23174435 -11.15430477 47.22763536 -12.22998111 40.91335648 -7.39600414 -44.35485691
4026950000 -1.70050609 -30.21243495 -11.16067530 47.23246054 -12.19504164 41.04525027 -7.39349414 -44.26376021
4031940000 -1.70157723 -30.21258257 -11.16167482 47.17813639 -12.19681360 40.91159950 -7.38893592 -44.30762519
4036930000 -1.70589337 -30.21444953 -11.15292898 47.10219384 -12.17337377 40.95805159 -7.38472417 -44.45928061
4041920000 -1.70622680 -30.24596690 -11.13748716 47.10981039 -12.17553360 40.90071841 -7.37931902 -44.40214877
4046910000 -1.71558866 -30.24434866 -11.14021963 47.19221343 -12.19408045 41.01770529 -7.39238682 -44.44460061
4051900000 -1.73417093 -30.27691551 -11.13619967 47.07148002 -12.17626727 40.89357424 -7.40613856 -44.35582012
4056890000 -1.73329030 -30.30555396 -11.12170015 46.96059321 -12.19255479 40.81076633 -7.39530468 -44.51461561
4061880000 -1.73088539 -30.37697925 -11.13853846 46.98072990 -12.15800254 40.91185045 -7.41481246 -44.52136284
4066870000 -1.73832782 -30.35920994 -11.14840913 46.97954461 -12.17341705 40.83620290 -7.41543701 -44.52260436
4071860000 -1.72232776 -30.54107450 -11.10312111 46.86092892 -12.16266992 40.75713703 -7.42165807 -44.53859641
4076850000 -1.73947067 -30.47013079 -11.12549354 46.89152349 -12.12636521 40.73323381 -7.38867106 -44.57642745
4081840000 -1.72952991 -30.60077103 -11.10126129 46.89426021 -12.14889415 40.67635676 -7.40757218 -44.65028952
4086830000 -1.73075383 -30.66565603 -11.11448098 46.80024610 -12.11726342 40.73852534 -7.40548732 -44.69268537
4091820000 -1.72801334 -30.64377470 -11.08919682 46.67986198 -12.13137817 40.78052484 -7.42079258 -44.62387377
4096810000 -1.72952929 -30.76409223 -11.10252268 46.68811783 -12.11479463 40.55558096 -7.40769064 -44.64348382
4101800000 -1.72336922 -30.71323288 -11.10093993 46.58310382 -12.11451386 40.57774376 -7.41732844 -44.73853557
4106790000 -1.72847231 -30.80135143 -11.09216009 46.62043569 -12.11701184 40.54986055 -7.42358811 -44.69022696
4111780000 -1.71936985 -30.79974481 -11.09133919 46.55477531 -12.12160983 40.50253781 -7.41295163 -44.89145221
4116770000 -1.73414692 -30.87763867 -11.09661846 46.51599577 -12.10718525 40.46580794 -7.39387375 -44.80123294
4121760000 -1.73247395 -30.74326830 -11.08657369 46.48834118 -12.09434013 40.27514941 -7.42912752 -44.77139184
4126750000 -1.72474536 -30.77212461 -11.08006367 46.42713758 -12.12400193 40.31520588 -7.42987219 -44.90100625
4131740000 -1.73231363 -30.74477210 -11.08195702 46.61503409 -12.07132170 40.30407210 -7.42001072 -44.99651566
4136730000 -1.72777462 -30.75529123 -11.08335152 46.47287830 -12.10365570 40.44031368 -7.44681545 -44.99626614
4141720000 -1.74485222 -30.71319056 -11.07092461 46.45727140 -12.08659116 40.37495315 -7.45788050 -44.94561941
4146710000 -1.74727702 -30.73012823 -11.05981767 46.39682295 -12.08919801 40.35315250 -7.44723382 -45.04354022
4151700000 -1.75937473 -30.80326527 -11.06722810 46.24051349 -12.08196890 40.39150142 -7.42922490 -45.13813835
4156690000 -1.76242620 -30.76497415 -11.07663481 46.32269235 -12.04913327 40.38019558 -7.43653244 -45.24364334
4161680000 -1.77746838 -30.86402883 -11.05306440 46.21644307 -12.05425085 40.14549987 -7.44307472 -45.16904829
4166670000 -1.76543701 -30.90327294 -11.05989552 46.13495637 -12.07913989 40.21036870 -7.44682469 -45.11187132
4171660000 -1.78097260 -30.93117108 -11.05045416 46.26681322 -12.06681734 40.17288845 -7.44235447 -45.20452343
4176650000 -1.76761400 -30.97082620 -11.04807367 46.09494407 -12.03054222 40.17771087 -7.45538788 -45.20981121
4181640000 -1.78025075 -31.07127539 -11.05396113 46.06780092 -12.05643416 40.18567249 -7.44822682 -45.38358368
4186630000 -1.78666392 -31.08770140 -11.05053107 46.10336122 -12.01763313 40.18823920 -7.45893905 -45.40021761
4191620000 -1.77794162 -31.15682549 -11.02836076 45.95353376 -12.02851986 40.10903812 -7.46667823 -45.38197234
4196610000 -1.77001300 -31.16220399 -11.03616618 46.06321838 -12.01944851 40.04057578 -7.44629875 -45.29796623
4201600000 -1.78622067 -31.22892578 -11.03910453 45.95831505 -11.99727967 40.08115771 -7.47153961 -45.41424921
4206590000 -1.77427779 -31.19209312 -11.02809071 45.97662838 -12.01682913 39.99415895 -7.47159045 -45.47350939
4211580000 -1.76697791 -31.26816206 -11.03873842 45.84518727 -12.00001536 40.02179157 -7.45352700 -45.57827099
4216570000 -1.76700885 -31.31163003 -11.02389587 45.90643310 -12.00718741 39.80295393 -7.44801896 -45.56127974
4221560000 -1.76845125 -31.25767463 -11.01670136 45.91353054 -11.98993156 39.90408842 -7.45930016 -45.56790507
4226550000 -1.77265345 -31.25736525 -11.02094234 45.80110161 -11.99411516 39.96729359 -7.47203835 -45.56203605
4231540000 -1.78378171 -31.24501832 -11.01948810 45.74004049 -12.00043179 40.01200500 -7.48506115 -45.61414469
4236530000 -1.78228053 -31.24296855 -11.02316609 45.67975679 -11.99676804 39.86244811 -7.47975724 -45.67778782
4241520000 -1.78460416 -31.20925551 -11.01254120 45.69540549 -11.97636983 39.85379319 -7.47371712 -45.73553527
4246510000 -1.78802565 -31.23831000 -11.01306008 45.75191851 -11.97699445 39.88058087 -7.47478607 -45.78600937
4251500000 -1.79657243 -31.16948780 -11.00287188 45.67829108 -11.97774883 39.75355436 -7.48987512 -45.76208449
4256490000 -1.80111071 -31.24693249 -10.99591425 45.56209729 -11.95505717 39.85380165 -7.47188246 -45.84339363
4261480000 -1.81263228 -31.25037479 -11.00159666 45.65693352 -11.97245892 39.78405509 -7.46221037 -45.85340127
4266470000 -1.82068028 -31.29624794 -11.00389006 45.55556997 -11.96371817 39.65816643 -7.46337184 -45.96487960
4271460000 -1.81212607 -31.30079233 -10.97806661 45.56828083 -11.94462793 39.77039567 -7.48420773 -45.88422242
4276450000 -1.81471890 -31.34190585 -10.99789660 45.45074536 -11.95758931 39.68355684 -7.47635087 -45.87778896
4281440000 -1.82628377 -31.42851979 -10.98882700 45.53059559 -11.94308287 39.64718582 -7.47146049 -46.01121310
4286430000 -1.82931555 -31.51265045 -10.97511422 45.38298838 -11.92492971 39.66325704 -7.46824740 -45.91522660
4291420000 -1.82126840 -31.52855500 -10.98253497 45.37699404 -11.94328238 39.59118588 -7.48358059 -46.02537257
4296410000 -1.81877966 -31.59167408 -10.97189565 45.32530210 -11.92412732 39.63966070 -7.50137135 -46.08513571
4301400000 -1.82673222 -31.57745566 -10.97499578 45.38336334 -11.93271886 39.57967521 -7.51059707 -46.04668446
4306390000 -1.82028267 -31.67704560 -10.95515000 45.27463625 -11.91858057 39.57958091 -7.49245316 -46.13634876
4311380000 -1.82092527 -31.69549881 -10.96658955 45.22369585 -11.93698211 39.48762530 -7.50400246 -46.13925573
4316370000 -1.81471771 -31.69547027 -10.96759310 45.27559782 -11.91231550 39.37867484 -7.50786101 -46.24111274
4321360000 -1.82212460 -31.65842195 -10.97130748 45.29411311 -11.89890792 39.50524547 -7.50247950 -46.13973044
4326350000 -1.81325475 -31.66186473 -10.95314945 45.14766750 -11.90906427 39.32046107 -7.49595400 -46.32478569
4331340000 -1.82039500 -31.69912004 -10.94125409 45.11656099 -11.91981929 39.33063982 -7.51110661 -46.21408443
4336330000 -1.82151968 -31.72692705 -10.95741335 45.14593436 -11.88334548 39.31510278 -7.51368485 -46.27899900
4341320000 -1.81477160 -31.64435891 -10.94829432 45.14947790 -11.87723621 39.27185794 -7.51396976 -46.39442479
4346310000 -1.82430073 -31.59297267 -10.95476592 45.09225430 -11.89544221 39.31659325 -7.51489988 -46.42631124
4351300000 -1.82739434 -31.59665624 -10.95641612 45.06482925 -11.87779212 39.20935496 -7.52219232 -46.54300920
4356290000 -1.83695198 -31.71614292 -10.93821988 44.95765654 -11.87526893 39.28229014 -7.51567636 -46.45671488
4361280000 -1.84621842 -31.73338390 -10.91609307 44.84746472 -11.86964506 39.16422864 -7.52243378 -46.53211656
4366270000 -1.84767452 -31.72200691 -10.92949603 44.88674811 -11.86488359 39.22212429 -7.53577145 -46.54756460
4371260000 -1.85553537 -31.73505788 -10.92610603 44.78762879 -11.87426608 39.22188119 -7.51957880 -46.58084419
4376250000 -1.86379825 -31.77043315 -10.93024100 44.74190969 -11.86085570 39.03249342 -7.53894551 -46.66370623
4381240000 -1.85131157 -31.76951717 -10.94033777 44.76069301 -11.83973350 39.33363016 -7.53153889 -46.65352087
4386230000 -1.86204667 -31.85527710 -10.92231127 44.81887274 -11.83880619 39.20360445 -7.52464367 -46.70410720
4391220000 -1.87500311 -31.92477114 -10.92136934 44.84555310 -11.84635625 39.07608119 -7.51813247 -46.65631391
4396210000 -1.87447938 -31.93147034 -10.92240110 44.87495324 -11.83853134 39.15633370 -7.54135146 -46.73892636
4401200000 -1.87849050 -31.96427145 -10.90306264 44.74003812 -11.82666789 39.10387756 -7.52865367 -46.73356324
4406190000 -1.87009230 -32.05823944 -10.88926198 44.71622399 -11.82524964 39.05463973 -7.53143217 -46.65614891
4411180000 -1.86582654 -32.07338468 -10.89034242 44.69270555 -11.79647096 39.01785214 -7.53810645 -46.81438507
4416170000 -1.86534416 -32.09009369 -10.89151011 44.62509901 -11.83029472 39.03340057 -7.55779923 -46.78159997
4421160000 -1.85911943 -32.12962783 -10.87940931 44.57710254 -11.81688677 38.94102275 -7.54717232 -46.82458808
4426150000 -1.86658083 -32.02978697 -10.88315768 44.66548080 -11.81496569 39.02044897 -7.56270789 -46.88846399
4431140000 -1.86063082 -32.13585008 -10.87337743 44.51673664 -11.80956015 38.91818268 -7.56996084 -46.87328332
4436130000 -1.86219256 -32.09933574 -10.88596851 44.43610695 -11.78749655 38.88092379 -7.55646676 -46.96362200
4441120000 -1.87338543 -32.11769882 -10.87989708 44.50403508 -11.80210994 38.84226279 -7.58732964 -46.99781739
4446110000 -1.87293275 -32.08702219 -10.87867206 44.45194918 -11.80318661 38.78395036 -7.57264668 -47.12128504
4451100000 -1.87112016 -32.14206070 -10.87876965 44.32887142 -11.79736334 38.77632807 -7.58564620 -47.10022814
4456090000 -1.86839599 -32.12142990 -10.86211776 44.40019414 -11.78690914 38.87862408 -7.58245183 -47.10561550
4461080000 -1.87905641 -32.09665668 -10.86420706 44.35293779 -11.78219823 38.75358970 -7.55499118 -47.17384589
4466070000 -1.88113869 -32.10557559 -10.85628814 44.26988031 -11.77430905 38.80088844 -7.58040367 -47.24690598
4471060000 -1.88929077 -32.15659060 -10.87143233 44.23686632 -11.76006620 38.74748296 -7.56879444 -47.26875865
4476050000 -1.89444357 -32.14170452 -10.85487977 44.22293718 -11.75933528 38.77693408 -7.57424727 -47.25231995
4481040000 -1.90251286 -32.15093793 -10.84269635 44.18326740 -11.76767613 38.71533323 -7.58038981 -47.22637999
4486030000 -1.90999660 -32.16960069 -10.86459466 44.19079381 -11.75610280 38.79215684 -7.57380250 -47.27352426
4491020000 -1.90462547 -32.18545555 -10.85693114 44.20910837 -11.74870489 38.70130643 -7.58771223 -47.27046935
4496010000 -1.91171232 -32.35796583 -10.84764839 44.17203233 -11.73254690 38.61368213 -7.57577993 -47.29738503
4501000000 -1.90976005 -32.38565983 -10.83719995 44.17322320 -11.74234993 38.67753349 -7.58372408 -47.33635482
4505990000 -1.90638296 -32.42002532 -10.83476883 44.05956171 -11.73690756 38.65075355 -7.58091307 -47.41204893
4510980000 -1.91491595 -32.47295727 -10.83321942 44.06623489 -11.72781630 38.63213579 -7.57532877 -47.34017136
4515970000 -1.91163059 -32.49161225 -10.82477286 44.02220186 -11.72217542 38.55997745 -7.59182070 -47.43352303
4520960000 -1.91306147 -32.48989565 -10.82224791 43.94738660 -11.72179945 38.49360958 -7.60061007 -47.47080147
4525950000 -1.90675513 -32.51798087 -10.82600939 43.99222376 -11.71571215 38.49173191 -7.61086627 -47.43272868
4530940000 -1.90242880 -32.60621584 -10.80264854 43.96380619 -11.70147582 38.52642317 -7.58888944 -47.56934309
4535930000 -1.89722760 -32.62435126 -10.80574263 43.83606421 -11.69694871 38.42035881 -7.62797988 -47.49866291
4540920000 -1.89115828 -32.59658841 -10.79635510 43.84066149 -11.69341406 38.51110276 -7.61849364 -47.47544180
4545910000 -1.90774538 -32.60364532 -10.81699563 43.74272292 -11.69330571 38.43752921 -7.62639204 -47.66832909
4550900000 -1.91292280 -32.64094735 -10.80821315 43.81935322 -11.69434282 38.38459681 -7.61900717 -47.59227522
4555890000 -1.91755847 -32.53177957 -10.80942943 43.79449384 -11.69690382 38.30059055 -7.63390452 -47.79803906
4560880000 -1.92235058 -32.57307509 -10.80777689 43.63773770 -11.68862735 38.41281724 -7.61795072 -47.78216962
4565870000 -1.92510375 -32.60027601 -10.81201222 43.57896334 -11.67647880 38.29130466 -7.63357520 -47.89484676
4570860000 -1.92527393 -32.56783783 -10.80168915 43.72778968 -11.67177211 38.31142271 -7.62519068 -47.81351063
4575850000 -1.93741487 -32.59680046 -10.79167291 43.63876169 -11.67934987 38.34792673 -7.65161346 -47.90208084
4580840000 -1.94020172 -32.58655642 -10.79792269 43.66323944 -11.67632173 38.28497709 -7.63968874 -47.88777417
4585830000 -1.95176528 -32.63945762 -10.79303622 43.59100120 -11.67974223 38.27877466 -7.63111595 -47.92921294
4590820000 -1.94522826 -32.67985729 -10.77670907 43.68960556 -11.65239295 38.16319803 -7.61995925 -48.02679370
4595810000 -1.96099628 -32.70031039 -10.78755822 43.49439673 -11.65154234 38.19447955 -7.63421015 -48.08394639
4600800000 -1.96419268 -32.76011941 -10.77777800 43.54967153 -11.64783281 38.22192024 -7.63365869 -48.00514506
4605790000 -1.96182715 -32.83209326 -10.77640223 43.55315479 -11.64530478 38.17259006 -7.63258674 -48.08885158
4610780000 -1.96315558 -32.87713901 -10.75610561 43.51969962 -11.63682625 38.13016352 -7.64140690 -48.11544444
4615770000 -1.95954097 -32.95200258 -10.75469991 43.48492604 -11.63703890 38.08821404 -7.63545533 -48.06180757
4620760000 -1.95861098 -32.91808007 -10.76512024 43.47508338 -11.62518459 38.05139196 -7.64104483 -48.10120429
4625750000 -1.95893117 -32.98510849 -10.76069236 43.26840842 -11.63413805 38.07671945 -7.64103200 -48.18809747
4630740000 -1.95963310 -33.00961893 -10.74482170 43.27455995 -11.60380262 38.02351482 -7.64321258 -48.18452691
4635730000 -1.95669339 -33.01539046 -10.73881299 43.28248509 -11.59141164 38.03989947 -7.65611990 -48.13919347
4640720000 -1.95274431 -33.08144296 -10.74640538 43.21954852 -11.59297579 37.84276525 -7.63750096 -48.22162455
4645710000 -1.95798473 -33.10109099 -10.74064398 43.18409612 -11.60540140 37.75832538 -7.65799047 -48.24218291
4650700000 -1.95022869 -33.07039067 -10.73995499 43.14368650 -11.59123897 37.85520498 -7.67274512 -48.32631162
4655690000 -1.95033237 -33.06414105 -10.73368772 43.13967877 -11.60296793 37.84825813 -7.68162850 -48.25591976
4660680000 -1.96255959 -33.06561747 -10.74492498 43.08933978 -11.59537437 37.90375434 -7.67817083 -48.38411561
4665670000 -1.96626046 -33.02797878 -10.73291301 43.05507725 -11.58546242 37.83826636 -7.67563238 -48.45106077
4670660000 -1.96727861 -33.08465567 -10.73337487 43.02710560 -11.59080813 37.64119093 -7.66711524 -48.46353935
4675650000 -1.97122559 -33.07458879 -10.73945451 43.00930028 -11.58321949 37.81840783 -7.68097427 -48.47318949
4680640000 -1.98212115 -33.03531589 -10.72503418 42.96562494 -11.57794080 37.76883157 -7.66677008 -48.54101819
4685630000 -1.98668543 -33.08038073 -10.72300628 42.91855274 -11.57372330 37.77184832 -7.68037753 -48.64062610
4690620000 -1.99315414 -33.11801943 -10.71760099 42.85977712 -11.56245243 37.67928227 -7.67924249 -48.65600999
4695610000 -1.98826887 -33.15061810 -10.71736390 42.95153087 -11.55895614 37.72877746 -7.70071391 -48.57821027
4700600000 -2.00069025 -33.22703941 -10.69840655 42.91722232 -11.56809384 37.66097786 -7.67481117 -48.74298818
4705590000 -2.00332572 -33.25506251 -10.70271414 42.89239439 -11.56247685 37.66986737 -7.68271364 -48.53938438
4710580000 -1.99939895 -33.30470904 -10.70559501 42.86739577 -11.54908271 37.68614262 -7.68221247 -48.60840379
4715570000 -2.00658386 -33.32838238 -10.70468242 42.87542005 -11.53786985 37.62451146 -7.68324957 -48.57312070
4720560000 -2.00660476 -33.36608374 -10.67851295 42.75453477 -11.54668148 37.64262583 -7.68506462 -48.65644295
4725550000 -2.00327090 -33.46856950 -10.66717827 42.77410923 -11.54530456 37.68582393 -7.68329976 -48.64408081
4730540000 -2.00594527 -33.48395871 -10.67456076 42.74598960 -11.53197070 37.55152511 -7.70604339 -48.68658849
4735530000 -2.00469976 -33.52565603 -10.68806064 42.60394044 -11.53176076 37.53661959 -7.67733436 -48.68669007
4740520000 -2.00804645 -33.54620541 -10.67463949 42.59254565 -11.53229397 37.49534116 -7.70579005 -48.66558652
4745510000 -1.99542109 -33.56232297 -10.67416130 42.55118936 -11.52363218 37.51422246 -7.71083560 -48.68547742
4750500000 -2.00515484 -33.65099117 -10.69382808 42.40246688 -11.51946322 37.39825771 -7.73153035 -48.76266118
4755490000 -2.00965416 -33.66338649 -10.67616356 42.47722612 -11.49635448 37.37664970 -7.71021329 -48.83157030
4760480000 -2.00258506 -33.59063394 -10.68815151 42.50455339 -11.50816013 37.36611043 -7.72804095 -48.82835213
4765470000 -2.01034772 -33.59380066 -10.68763120 42.49876054 -11.50845791 37.38556240 -7.71707964 -48.86793164
4770460000 -2.01023584 -33.60225437 -10.66619909 42.51600250 -11.50169495 37.21229007 -7.73858478 -49.07463655
4775450000 -2.01892053 -33.58511104 -10.66862306 42.39988722 -11.49201410 37.27327201 -7.70947595 -49.06042739
4780440000 -2.01553763 -33.59698298 -10.65407568 42.40027046 -11.48969912 37.36257006 -7.73701547 -49.05259349
4785430000 -2.02599552 -33.63732672 -10.65350093 42.32979770 -11.48841933 37.29147744 -7.73749761 -49.13455727
4790420000 -2.03440765 -33.59489940 -10.65920605 42.30302304 -11.48886643 37.32847975 -7.73304226 -49.14693360
4795410000 -2.03418833 -33.61373488 -10.64465151 42.19785289 -11.48906374 37.32566839 -7.73343254 -49.12713175
4800400000 -2.04005303 -33.62459122 -10.66179598 42.23675499 -11.47712808 37.28640662 -7.74477574 -49.14324605
4805390000 -2.05087317 -33.66521701 -10.65543347 42.26246185 -11.46572687 37.29050909 -7.73279167 -49.23630456
4810380000 -2.05391322 -33.80281681 -10.64455918 42.21293206 -11.45984535 37.24876618 -7.73342946 -49.19119733
4815370000 -2.05932978 -33.82305038 -10.63349984 42.25747181 -11.45745539 37.12588523 -7.72398588 -49.16873247
4820360000 -2.05602221 -33.85039027 -10.63179349 42.13302223 -11.45626236 37.19703278 -7.73368263 -49.25468678
4825350000 -2.05305265 -33.84792820 -10.62355528 42.17349260 -11.45576923 37.10720416 -7.72052920 -49.20977257
4830340000 -2.05084024 -33.95693976 -10.62578908 42.07431637 -11.46413756 37.14110940 -7.73427617 -49.25833887
4835330000 -2.05392868 -33.98159331 -10.62620456 41.95258480 -11.45352585 37.00582831 -7.75180869 -49.28451604
4840320000 -2.06460857 -34.00708189 -10.62336435 41.99124810 -11.44822046 37.01086313 -7.73418609 -49.30906189
4845310000 -2.05914458 -34.08383219 -10.63001271 42.01178198 -11.44295459 36.96595960 -7.75533958 -49.25763735
4850300000 -2.05782774 -34.05377081 -10.62777265 41.95848754 -11.44020328 36.93404080 -7.75304851 -49.44926288
4855290000 -2.04847324 -34.11435660 -10.62778638 41.85186567 -11.43309158 36.93015064 -7.76034212 -49.47307924
4860280000 -2.05340831 -34.13632293 -10.61479518 41.90531468 -11.43293183 36.84133638 -7.75772566 -49.55507414
4865270000 -2.06054565 -34.07192876 -10.62538482 41.88822836 -11.42219601 36.90032810 -7.76494108 -49.48250615
4870260000 -2.06668580 -34.14035788 -10.60584730 41.82427085 -11.42779731 36.82685878 -7.78063489 -49.51993172
4875250000 -2.07263754 -34.15346088 -10.61213376 41.84269722 -11.41846860 36.82773035 -7.77865334 -49.54647820
4880240000 -2.06775627 -34.09284795 -10.61220795 41.80030438 -11.41260511 36.81301483 -7.76467982 -49.63602309
4885230000 -2.06580482 -34.11966223 -10.60793037 41.77317733 -11.42178548 36.79586112 -7.78235742 -49.60516591
4890220000 -2.07752401 -34.09902321 -10.59838917 41.73632700 -11.40358952 36.82977002 -7.77808422 -49.65876009
4895210000 -2.08067630 -34.11672365 -10.59593149 41.72442515 -11.41451317 36.64191967 -7.77055404 -49.78460481
4900200000 -2.08581935 -34.21157762 -10.59228107 41.65501740 -11.40045885 36.67524605 -7.77521528 -49.73497235
4905190000 -2.08724641 -34.19748612 -10.59532607 41.72729599 -11.39376739 36.74559578 -7.77719071 -49.82194985
4910180000 -2.09996253 -34.21084767 -10.59248908 41.70288096 -11.39544622 36.67376606 -7.78021507 -49.81337709
4915170000 -2.09973486 -34.31193845 -10.58456829 41.60098369 -11.37970596 36.62324771 -7.75773325 -49.95815294
4920160000 -2.09209474 -34.34062586 -10.58481018 41.58316262 -11.38393593 36.57041802 -7.77070200 -49.86198235
4925150000 -2.10163646 -34.32264632 -10.58484736 41.58489537 -11.38496516 36.63925273 -7.77036641 -49.91377225
4930140000 -2.10794022 -34.43205726 -10.57093504 41.53391560 -11.36960318 36.57420878 -7.77231593 -49.85762168
4935130000 -2.11037093 -34.43274856 -10.57686793 41.50074424 -11.37475376 36.50674970 -7.78191571 -49.89266762
4940120000 -2.10491689 -34.47671078 -10.55912037 41.41386492 -11.36139257 36.58452289 -7.77418055 -49.93234775
4945110000 -2.11531672 -34.51940029 -10.56291390 41.51214374 -11.36229352 36.51315028 -7.77703280 -49.88671990
4950100000 -2.10603582 -34.51969186 -10.55397826 41.39785487 -11.36739952 36.48522828 -7.78366368 -50.00790101
4955090000 -2.10719405 -34.65061359 -10.55915417 41.32698075 -11.36254692 36.39999685 -7.78979725 -50.05634881
4960080000 -2.10965049 -34.64360538 -10.55010507 41.27969433 -11.35026188 36.36747182 -7.80356520 -50.04481993
4965070000 -2.10367905 -34.67025343 -10.57068380 41.21304591 -11.34064802 36.46095047 -7.79526772 -50.08303026
4970060000 -2.10521651 -34.70267688 -10.56912252 41.24830983 -11.33812787 36.35674870 -7.80142305 -50.12962877
4975050000 -2.10603866 -34.65007924 -10.55948298 41.24742209 -11.35460263 36.29871592 -7.81482745 -50.19383110
4980040000 -2.10898080 -34.69483482 -10.55370382 41.25604001 -11.34492528 36.43011596 -7.80926141 -50.24902307
4985030000 -2.11445145 -34.68429032 -10.55693496 41.24783078 -11.33138476 36.30774299 -7.81072545 -50.22932358
4990020000 -2.12034027 -34.67694099 -10.54421213 41.14698250 -11.32030649 36.34621126 -7.80196673 -50.29480537
4995010000 -2.13347080 -34.74391034 -10.53726290 41.08605788 -11.33892798 36.23806576 -7.80736840 -50.35630435
5000000000 -2.12710678 -34.69519377 -10.53393054 41.02685390 -11.32005027 36.31388948 -7.80561253 -50.32202178