! Forward-simulated: Re-embedded (raw/measured) — deemb_preext_vce3.5_ib200u.s2p
!   source_deembedded_file = deemb_preext_vce3.5_ib200u.s2p
!   Cpbe_fF = 22.0
!   Cpce_fF = 18.0
!   Cpbc_fF = 5.0
!   Lb_pH = 45.0
!   Lc_pH = 42.0
!   Le_pH = 6.0
!   Rpb_ohm = 0.0
!   Rpc_ohm = 0.0
!   Rpe_ohm = 0.0
# Hz S DB R 50
10000000 -0.08726048 0.05432183 -2.78932123 173.41689986 -47.23886932 53.53031963 0.54290918 -1.83817133
14990000 -0.13216069 -0.18078056 -2.93112623 172.07851611 -46.15795515 39.96158859 0.52814117 -2.93063754
19980000 -0.14006750 -0.56033284 -3.02847314 170.00370644 -44.21150019 77.96852212 0.53027749 -3.97634573
24970000 -0.18322680 -0.61640405 -3.12474884 168.43351277 -44.30914510 63.18126207 0.49670743 -4.67337866
29960000 -0.15116419 -0.76195765 -3.24000126 166.52199363 -40.65815487 70.72474416 0.45275486 -5.91412528
34950000 -0.14916065 -0.72800882 -3.33894529 164.91047001 -39.63600080 69.14860888 0.40511136 -6.80786389
39940000 -0.16396217 -0.74020912 -3.43401626 163.24752160 -38.86002146 71.22419830 0.36995251 -7.65386247
44930000 -0.15288934 -0.75853172 -3.52209609 161.70912518 -38.03016975 70.61047478 0.29179678 -8.54186453
49920000 -0.16185753 -0.87407125 -3.62844739 160.10613088 -37.37147969 69.56166020 0.24457863 -9.37641418
54910000 -0.17265645 -1.13678977 -3.75084624 158.60601433 -35.35356828 72.32573027 0.16911134 -9.97313388
59900000 -0.17031578 -1.29843765 -3.85305351 156.80258776 -35.72220056 65.63081015 0.08441788 -10.90382688
64890000 -0.17156761 -1.25468772 -3.96988421 155.44148859 -35.20187870 64.99634725 0.00306630 -11.67198432
69880000 -0.17069675 -1.16887734 -4.05243783 154.22992652 -34.26644280 67.89988898 -0.06375889 -12.26387942
74870000 -0.16408144 -1.51601230 -4.16530477 152.79527689 -34.07516431 68.93841596 -0.12971279 -12.94564886
79860000 -0.20709282 -1.50785976 -4.32725725 151.36062737 -33.55969749 65.15525257 -0.20718640 -13.57597842
84850000 -0.21702143 -1.62920843 -4.43782195 150.05156739 -33.11332846 65.06693605 -0.29525047 -14.09092406
89840000 -0.21971649 -1.66155591 -4.57031532 148.73057202 -32.90479757 64.72903535 -0.38778123 -14.57851907
94830000 -0.22751459 -1.65095504 -4.70393496 147.73818411 -32.28836006 63.77064394 -0.47155384 -15.22700288
99820000 -0.24258962 -1.77803885 -4.82346987 146.37016975 -31.99673085 62.23308523 -0.55532917 -15.71678481
104810000 -0.24613434 -1.87236606 -4.94622461 145.21162693 -31.66111545 62.78722145 -0.64669873 -16.12800511
109800000 -0.25670099 -1.92156889 -5.07565239 144.05812511 -31.56613021 61.01699071 -0.71815494 -16.66753750
114790000 -0.25022479 -1.98398102 -5.19502343 143.07898919 -31.15026099 62.21373624 -0.80565816 -17.00718889
119780000 -0.26548276 -1.94877649 -5.34088167 142.07154593 -31.00554377 60.81729834 -0.87524020 -17.35111788
124770000 -0.26050273 -2.03163351 -5.45270193 140.93109315 -30.74933514 60.39018705 -0.95142077 -17.76299346
129760000 -0.25213102 -2.13888009 -5.56720615 139.99873507 -30.37683975 59.20883937 -1.02608769 -18.05272633
134750000 -0.26297786 -2.11176148 -5.68184794 139.09283406 -30.32242351 60.38038235 -1.10881781 -18.38273009
139740000 -0.25532610 -2.15138166 -5.78114728 138.15736974 -29.99648642 58.81826994 -1.18591534 -18.72672369
144730000 -0.25656920 -2.21847005 -5.90366669 137.25360947 -29.93611447 58.71633622 -1.26037251 -18.95598736
149720000 -0.26007469 -2.25345087 -6.00815561 136.40103396 -29.82053246 58.38544356 -1.33021090 -19.25215636
154710000 -0.25374805 -2.24954358 -6.12702851 135.44944403 -29.52002135 57.28349672 -1.41438437 -19.50504168
159700000 -0.26063233 -2.25366832 -6.24758469 134.71081043 -29.30042932 57.05258966 -1.48489951 -19.70266407
164690000 -0.26057308 -2.37388121 -6.35958293 133.85880104 -29.21126793 57.03303244 -1.57175531 -19.89483233
169680000 -0.26956107 -2.37927083 -6.47723424 133.04195026 -29.09155316 56.92831851 -1.63325886 -20.12900913
174670000 -0.27192142 -2.48052258 -6.58727174 132.26332842 -28.93625613 56.37198393 -1.71892697 -20.31235831
179660000 -0.27943248 -2.58432370 -6.70742821 131.52663801 -28.75874818 55.38959515 -1.79146368 -20.47955385
184650000 -0.27597841 -2.64422965 -6.79322407 130.69168680 -28.67278727 55.08512569 -1.86075487 -20.56929719
189640000 -0.29278386 -2.73397241 -6.91141670 129.89165462 -28.46601363 55.10175647 -1.91580751 -20.86050332
194630000 -0.30664650 -2.77505978 -7.03047785 129.38601697 -28.51453999 55.72600941 -2.01652064 -20.96098371
199620000 -0.33121446 -2.74943505 -7.15855555 128.61669907 -28.32613993 54.80018986 -2.07064758 -21.18258431
204610000 -0.33662388 -2.59245155 -7.27169992 128.16562097 -28.07643614 56.40208977 -2.15554494 -21.22944991
209600000 -0.30510490 -2.74510814 -7.36527090 127.20397882 -27.90098035 55.08000301 -2.23723677 -21.21147022
214590000 -0.32104130 -3.02290945 -7.45584109 126.77333316 -27.94188146 54.18731020 -2.30289980 -20.95667594
219580000 -0.33164149 -3.03526042 -7.54331345 125.99525871 -27.74166733 54.33303304 -2.27561482 -21.25314604
224570000 -0.34549627 -2.96006756 -7.65518119 125.25984856 -27.76960668 54.49651993 -2.34663464 -21.59993359
229560000 -0.33862703 -2.89873538 -7.76729237 124.91697980 -27.80520469 53.66852040 -2.41009337 -21.66567632
234550000 -0.32772135 -2.79963969 -7.87284490 124.46508793 -27.48804800 54.06004406 -2.47755104 -21.67712790
239540000 -0.32973640 -2.86246506 -7.94892011 123.96614331 -27.53064721 53.84564837 -2.51682519 -21.85676144
244530000 -0.30950775 -2.97083193 -8.03342346 123.33699712 -27.43796225 53.62919093 -2.59277276 -21.84788506
249520000 -0.29933023 -2.99229984 -8.12604054 122.85362364 -27.37932948 53.73000461 -2.62672081 -21.87333396
254510000 -0.31576896 -3.07489170 -8.25155004 122.38323836 -27.15032522 53.27717968 -2.66084481 -21.82852772
259500000 -0.29399075 -3.14654277 -8.31171295 121.83536926 -27.16703803 53.66257483 -2.74861158 -21.92610600
264490000 -0.30754996 -3.09238566 -8.40804955 121.35718717 -26.93856080 53.40192965 -2.77402320 -21.96721758
269480000 -0.29253577 -3.08806409 -8.48412318 120.94430040 -26.82764535 53.84028124 -2.82777918 -22.15186311
274470000 -0.31159607 -3.09549951 -8.56705941 120.31053943 -26.91228110 52.73383396 -2.88049494 -22.15239477
279460000 -0.31097104 -3.24554964 -8.64655091 119.90308229 -26.77333559 54.10545218 -2.91706943 -22.01865712
284450000 -0.31001688 -3.28049460 -8.73266098 119.26840144 -26.76661625 53.68418233 -2.97348106 -22.07608491
289440000 -0.31001299 -3.42390512 -8.83259935 118.64793741 -26.57965665 52.83027040 -3.00460970 -22.09488663
294430000 -0.32012056 -3.42681273 -8.89849303 118.37447827 -26.50876263 52.82574701 -3.07571613 -22.12707897
299420000 -0.32896860 -3.54787676 -8.98802614 117.73927555 -26.51961289 53.37729453 -3.12427926 -22.23981403
304410000 -0.33049371 -3.56609492 -9.04325440 117.36298491 -26.37964695 52.38374377 -3.16085831 -22.23324119
309400000 -0.35920395 -3.83009606 -9.13831643 116.70879294 -26.36003514 52.82809257 -3.22824513 -22.19562600
314390000 -0.37864046 -3.69242548 -9.20870827 116.47669406 -26.20366557 53.04631471 -3.26829469 -22.22829993
319380000 -0.38452184 -3.84284492 -9.28947010 115.86322437 -26.39767324 52.60818030 -3.29425580 -22.17787426
324370000 -0.36512209 -3.73080605 -9.33425194 115.61994994 -26.16762989 52.62354722 -3.31089099 -22.13666658
329360000 -0.37552136 -3.61873851 -9.44191352 115.20909565 -26.11084739 52.47872324 -3.34084405 -22.15904754
334350000 -0.38336027 -3.69897958 -9.51280414 114.64229605 -26.05122699 52.80734298 -3.39833187 -22.16512321
339340000 -0.37359988 -3.72227684 -9.62448001 114.41576551 -26.09431946 52.41052321 -3.40195223 -22.24201957
344330000 -0.34769580 -3.61450064 -9.68281115 114.13370544 -25.95701205 52.79333931 -3.46452561 -22.33924823
349320000 -0.34214463 -3.63489371 -9.75437626 113.89048900 -25.83860191 52.54645503 -3.48653983 -22.20282496
354310000 -0.34412522 -3.70324697 -9.79230695 113.40547209 -25.82530644 52.57945340 -3.50242220 -22.31614808
359300000 -0.31929271 -3.71890943 -9.87798894 113.31277161 -25.72200338 52.84206311 -3.54514009 -22.29984434
364290000 -0.30402535 -3.76614065 -9.90667271 112.73626860 -25.59157531 52.95244577 -3.58947586 -22.36410660
369280000 -0.31488989 -3.81421344 -9.96596482 112.48749134 -25.57654981 53.34319725 -3.61515089 -22.25082637
374270000 -0.29173339 -3.87177836 -10.02198598 111.97386360 -25.38712063 52.67694824 -3.63684987 -22.24619835
379260000 -0.28090134 -3.87707550 -10.08440294 111.64207544 -25.44479952 53.18654493 -3.69504455 -22.20330364
384250000 -0.31444695 -4.04717041 -10.16907071 111.13935357 -25.41045572 53.44665395 -3.70754050 -22.23918824
389240000 -0.30709408 -4.13931627 -10.21645881 110.85229220 -25.33302147 52.72470476 -3.73831494 -22.25551690
394230000 -0.30591616 -4.21557167 -10.25946202 110.48476812 -25.23435461 52.79549718 -3.76980898 -22.16184010
399220000 -0.30511301 -4.35101503 -10.30565429 110.08343651 -25.20000441 52.83351411 -3.79753451 -22.19968562
404210000 -0.31507674 -4.33377390 -10.36013617 109.71398174 -25.16451810 53.00904126 -3.83432919 -22.20355715
409200000 -0.33503231 -4.50762702 -10.41123065 109.20008764 -25.16482530 53.04610332 -3.87234430 -22.26905309
414190000 -0.32850659 -4.63147022 -10.48844159 109.05446354 -25.04558918 53.11657202 -3.89332486 -22.16320425
419180000 -0.34864246 -4.69717677 -10.52385905 108.66844830 -25.03235415 52.78605435 -3.92443323 -22.21591444
424170000 -0.35883066 -4.79834556 -10.60005749 108.19844413 -24.98486447 53.15031086 -3.94576981 -22.08119633
429160000 -0.36956248 -4.79678104 -10.65589402 107.95565922 -24.95239200 52.86064199 -3.97659762 -22.21508269
434150000 -0.39579093 -4.77043811 -10.74245300 107.69441620 -24.87128697 52.61341285 -4.00457011 -22.18194482
439140000 -0.39714641 -4.66266646 -10.80536787 107.22077270 -24.85042016 52.89175653 -4.01412931 -22.19589933
444130000 -0.39548013 -4.54023963 -10.86419014 107.12200700 -24.86763738 53.07176685 -4.02718383 -22.09857278
449120000 -0.39377845 -4.54071456 -10.92583355 106.94931712 -24.79633442 53.11178644 -4.05159332 -22.16354616
454110000 -0.36440235 -4.43254717 -10.96360805 106.68426452 -24.72300942 53.40974411 -4.08001258 -22.08585118
459100000 -0.32762895 -4.35855666 -10.99554666 106.69824173 -24.54352041 53.53041732 -4.08948758 -22.03190733
464090000 -0.32108579 -4.39887421 -11.04046486 106.26919778 -24.56890477 53.27382738 -4.11504134 -22.06131496
469080000 -0.29687687 -4.52560342 -11.06726560 105.98717997 -24.43849863 53.22852216 -4.12503309 -22.09593388
474070000 -0.28866284 -4.55213882 -11.11202751 105.68397012 -24.50205733 53.51420117 -4.15479343 -22.05382186
479060000 -0.27740670 -4.67132495 -11.14764408 105.31155575 -24.40059679 53.55242783 -4.17181967 -22.05277330
484050000 -0.27393412 -4.72708947 -11.16483645 104.94003594 -24.33737450 53.54927640 -4.19983783 -21.99161415
489040000 -0.27569957 -4.75905256 -11.21486492 104.77981010 -24.29353842 53.51380420 -4.22726801 -21.99825902
494030000 -0.27972898 -4.94694612 -11.24108689 104.46042334 -24.26277812 53.25874072 -4.24436920 -22.05717901
499020000 -0.29113266 -4.99004362 -11.29301700 104.07753098 -24.18099455 53.53896380 -4.27450677 -21.96043218
504010000 -0.28108382 -5.01878726 -11.33568700 104.03683078 -24.09582685 53.61922449 -4.31890308 -21.97345157
509000000 -0.29768087 -5.27948885 -11.38374963 103.33900199 -24.03507898 53.15235534 -4.32388639 -22.03136823
513990000 -0.30132724 -5.35964614 -11.45057884 103.28772206 -24.01443338 53.53739012 -4.33169798 -21.93458291
518980000 -0.31681057 -5.36943444 -11.48260024 102.82580597 -24.05265787 53.14954619 -4.36803941 -21.90754143
523970000 -0.32018690 -5.57471536 -11.51899576 102.38973760 -24.00920249 53.41957459 -4.38334577 -21.92233382
528960000 -0.35363226 -5.63244712 -11.55565804 102.24069545 -23.91697780 53.63304520 -4.40340459 -21.97297807
533950000 -0.36885678 -5.77758995 -11.63400198 101.91686307 -23.91139150 53.36214629 -4.43697725 -21.90807524
538940000 -0.37727341 -5.76846460 -11.64800626 101.60222931 -23.86793736 53.56493279 -4.43483233 -21.89495281
543930000 -0.40744899 -5.61946108 -11.72793187 101.45068960 -23.76105375 53.45483591 -4.45533363 -21.95113337
548920000 -0.40911161 -5.52095268 -11.75764761 101.14207907 -23.76324244 53.87816767 -4.46404628 -21.94121757
553910000 -0.41325748 -5.35733528 -11.80348066 101.06202232 -23.71779803 53.80436865 -4.48479757 -21.83581300
558900000 -0.37820454 -5.22169232 -11.84172667 101.00176527 -23.71330536 54.04327947 -4.50316696 -21.81825692
563890000 -0.37167854 -5.20834495 -11.88004842 100.83087843 -23.73733474 54.72301610 -4.50071735 -21.92153315
568880000 -0.33097682 -5.12811011 -11.90458044 100.86988269 -23.49367557 53.92194602 -4.52196785 -21.86102784
573870000 -0.28873158 -5.14388530 -11.91953535 100.47898893 -23.50398807 54.47560381 -4.53537441 -21.78310080
578860000 -0.27707481 -5.25941132 -11.87794617 100.15290776 -23.40720630 54.58075995 -4.55098937 -21.69167600
583850000 -0.27027894 -5.44753495 -11.93166497 99.71284657 -23.38504493 53.97302353 -4.56701910 -21.75609760
588840000 -0.26043189 -5.54586705 -11.95365216 99.44182496 -23.33961582 54.26040548 -4.58505656 -21.71951669
593830000 -0.24532028 -5.51941802 -12.00333185 99.50583259 -23.27934598 54.32830692 -4.59053130 -21.72656883
598820000 -0.26503026 -5.74166292 -12.03837961 99.21579494 -23.23420410 54.24381575 -4.62159361 -21.70594468
603810000 -0.25366281 -5.79822364 -12.06457127 98.94477419 -23.14444189 54.58208672 -4.63298582 -21.69897424
608800000 -0.27771073 -5.95072496 -12.09885706 98.51925809 -23.18346908 54.08729686 -4.65576295 -21.72971161
613790000 -0.27328825 -6.03576851 -12.11585312 98.12752738 -23.12508668 53.96708335 -4.67616123 -21.72835867
618780000 -0.29005270 -6.19693376 -12.15742569 97.88924748 -23.10603746 54.11917778 -4.68679533 -21.67605798
623770000 -0.29761414 -6.36302960 -12.20197885 97.57892732 -23.02871376 53.81003758 -4.69966256 -21.69793254
628760000 -0.30160102 -6.41546336 -12.21759723 97.35423716 -23.05780137 53.92579472 -4.72608162 -21.70465375
633750000 -0.32455206 -6.44843469 -12.22841438 97.20058675 -22.95609977 54.30550920 -4.73020488 -21.71385974
638740000 -0.33721830 -6.57628958 -12.30773420 96.84698940 -22.93484078 54.03980070 -4.74003248 -21.81769870
643730000 -0.35294534 -6.69247803 -12.33459961 96.67584561 -22.97767715 54.09443492 -4.75599404 -21.76254783
648720000 -0.38292923 -6.69336779 -12.37229304 96.41284057 -22.90568576 54.36156053 -4.74918459 -21.81067330
653710000 -0.40761977 -6.65957320 -12.43131127 96.27217859 -22.88543228 54.04917866 -4.77946700 -21.75196640
658700000 -0.42603736 -6.51367277 -12.46774609 95.99224868 -22.75465550 54.29422684 -4.77985792 -21.74331249
663690000 -0.41905900 -6.40182859 -12.50278568 95.88014004 -22.79924313 54.46212790 -4.78904685 -21.68831739
668680000 -0.40610148 -6.12766838 -12.49840384 95.95771025 -22.73208974 54.69448162 -4.79749454 -21.78202128
673670000 -0.38407732 -6.05234145 -12.52221505 95.80726201 -22.73222173 54.80444727 -4.80254457 -21.83794634
678660000 -0.35420065 -6.00647738 -12.54163511 95.71528715 -22.65569519 54.98935453 -4.82482630 -21.75792823
683650000 -0.31628224 -6.07828897 -12.54004756 95.43171934 -22.63044494 54.70460402 -4.82846317 -21.83226917
688640000 -0.30040065 -6.09195749 -12.55358926 95.12770538 -22.53067181 54.95595323 -4.84472660 -21.75841470
693630000 -0.29361048 -6.19637903 -12.57431212 94.98467328 -22.44534336 54.75751159 -4.86135899 -21.74290632
698620000 -0.27528743 -6.29946276 -12.59745229 94.66886397 -22.50283554 54.93066423 -4.86550683 -21.71657744
703610000 -0.26346015 -6.35847384 -12.61241573 94.33357045 -22.43447800 54.68493270 -4.89120137 -21.75855437
708600000 -0.27184273 -6.51115133 -12.63199173 94.18477214 -22.34183035 54.83094472 -4.89618177 -21.72419270
713590000 -0.26260007 -6.61492824 -12.63444007 94.08961725 -22.28948944 54.49247645 -4.91285948 -21.72302020
718580000 -0.28069565 -6.82873416 -12.64301481 93.65460683 -22.29102281 54.74131888 -4.94072536 -21.67117024
723570000 -0.28061304 -7.03197737 -12.67987055 93.44568283 -22.25289426 54.40789752 -4.94129906 -21.74693154
728560000 -0.28076341 -7.06577141 -12.71521264 93.19650798 -22.18468796 54.96547284 -4.95295841 -21.72713712
733550000 -0.30625617 -7.26434940 -12.74180398 92.86765664 -22.17593727 54.53185863 -4.96181105 -21.81313162
738540000 -0.31584884 -7.36793437 -12.77183163 92.69931951 -22.13390348 54.76342984 -4.98634584 -21.88113263
743530000 -0.33899747 -7.43671587 -12.80109667 92.48596985 -22.12675134 54.52202912 -4.99835368 -21.83652371
748520000 -0.35298674 -7.53516282 -12.82882392 92.49278285 -22.08278969 54.93136674 -4.99468796 -21.76187736
753510000 -0.36014796 -7.59984029 -12.85787407 92.12400420 -22.07786950 54.67197947 -5.00865182 -21.88375940
758500000 -0.40289547 -7.63216282 -12.88864730 91.89841700 -22.03896117 54.71817807 -5.00928086 -21.88795417
763490000 -0.42267668 -7.59933283 -12.92037451 91.78579288 -21.98655498 54.56499797 -5.00703961 -21.79397001
768480000 -0.44963811 -7.54848027 -12.95102349 91.69918512 -21.96291882 54.73683818 -5.01461790 -21.88819480
773470000 -0.43319934 -7.24503913 -12.95220279 91.79730559 -21.93285159 55.21534419 -5.02996724 -21.80078255
778460000 -0.41926211 -7.05687223 -12.97004110 91.70474254 -21.90233485 55.04395371 -5.01645860 -21.86380465
783450000 -0.39028035 -6.95427358 -12.98438001 91.49993894 -21.88000044 55.59247196 -5.03163338 -21.90609938
788440000 -0.36707698 -6.97585592 -12.96046754 91.28899691 -21.81318351 55.07862729 -5.04412013 -21.92098732
793430000 -0.33506676 -7.00821936 -12.97942199 91.06408198 -21.77000018 55.24870188 -5.04766373 -21.89279798
798420000 -0.32197862 -7.08314392 -13.00339305 91.01964584 -21.73059472 55.55155893 -5.05293471 -21.86289804
803410000 -0.31358978 -7.24738939 -13.03010157 90.65250930 -21.66741895 55.35764370 -5.06887666 -21.88562615
808400000 -0.30211094 -7.31887439 -13.00292089 90.51200379 -21.65050967 55.36023953 -5.08012407 -21.84192777
813390000 -0.30968465 -7.45298556 -13.04633947 90.10337212 -21.59692520 55.18999676 -5.09623606 -21.86675079
818380000 -0.31081066 -7.51750842 -13.04969640 89.92120039 -21.59240563 55.23469560 -5.11144688 -21.87301631
823370000 -0.30704609 -7.69323932 -13.06210056 89.75793713 -21.58984925 55.04970308 -5.13629327 -21.92720271
828360000 -0.31085012 -7.75813954 -13.08370436 89.56235236 -21.45438899 55.07074995 -5.13184190 -21.87929482
833350000 -0.32761869 -7.91571386 -13.10322800 89.39923992 -21.48003855 55.12401451 -5.14534863 -21.85936876
838340000 -0.32582974 -8.06765251 -13.11930213 89.03494226 -21.41324758 55.17969453 -5.15341169 -21.92805565
843330000 -0.34780654 -8.11413587 -13.15033665 88.96537747 -21.39096031 55.15585033 -5.16404177 -21.86493759
848320000 -0.35509914 -8.24418709 -13.15895582 88.70063114 -21.35135447 54.77497267 -5.17185476 -22.01695278
853310000 -0.36780598 -8.34646960 -13.18659250 88.58308216 -21.33787246 55.23354821 -5.17377503 -22.01185700
858300000 -0.38493745 -8.45512960 -13.21335268 88.39103129 -21.35391050 54.99455146 -5.18950706 -22.02489736
863290000 -0.39406392 -8.59679808 -13.20623632 88.07945068 -21.27777806 54.81502033 -5.19211248 -22.04387875
868280000 -0.42775244 -8.61787931 -13.28078272 88.04255532 -21.27146705 55.07268196 -5.20716136 -22.00378547
873270000 -0.44592889 -8.51061543 -13.25811663 87.85032285 -21.26321131 55.08072515 -5.19424084 -22.08301146
878260000 -0.46567864 -8.40586274 -13.28316213 87.87025518 -21.21251582 55.51899048 -5.20695631 -22.11696975
883250000 -0.46791690 -8.23645611 -13.30617245 87.84238035 -21.16514404 55.45244810 -5.20758441 -22.07676960
888240000 -0.44965593 -8.05207577 -13.33020722 87.72262245 -21.15827160 55.34859968 -5.22228160 -22.03253877
893230000 -0.42563808 -7.93548730 -13.31339192 87.63426644 -21.06835126 55.59781575 -5.22365422 -22.07794363
898220000 -0.39951609 -7.88450146 -13.30979581 87.45928158 -21.03787198 55.57616293 -5.23716213 -21.96973291
903210000 -0.37105775 -7.89963862 -13.30638463 87.40492396 -21.02992222 55.54915650 -5.23890176 -22.08676804
908200000 -0.34957999 -7.98259500 -13.30983975 87.12417787 -20.97816539 55.54554501 -5.24355917 -22.06719548
913190000 -0.33183686 -8.11179628 -13.29289368 87.03989694 -20.92078485 55.49353291 -5.23855440 -21.97109703
918180000 -0.33923145 -8.34438439 -13.30857489 86.68345772 -20.82944552 55.26669130 -5.26201682 -22.06513858
923170000 -0.34132703 -8.41355667 -13.32666938 86.47335244 -20.84418256 55.44407412 -5.26336585 -21.96913935
928160000 -0.35804572 -8.43734636 -13.34762189 86.17194117 -20.83065819 55.22678166 -5.28561982 -22.12141386
933150000 -0.34810102 -8.61196744 -13.36172837 86.08257229 -20.78445009 55.30439375 -5.28672213 -22.08873554
938140000 -0.35686444 -8.68184655 -13.36310599 85.89821564 -20.74687884 55.17083550 -5.28968577 -22.12211097
943130000 -0.38178385 -8.77843906 -13.38014106 85.69486550 -20.73654176 55.08519202 -5.31011796 -22.15039741
948120000 -0.39116083 -8.88731775 -13.43000201 85.47677870 -20.67487534 55.08494191 -5.32418187 -22.18167024
953110000 -0.39835933 -8.94320129 -13.41849536 85.33488220 -20.67776632 55.04958227 -5.33389641 -22.28329239
958100000 -0.41129724 -9.09740762 -13.43152140 85.22543813 -20.64966212 55.19919654 -5.33890313 -22.19222612
963090000 -0.41652609 -9.16116081 -13.45519702 85.23640777 -20.64277810 55.06789215 -5.33912958 -22.31196790
968080000 -0.42354640 -9.23273540 -13.44337322 84.91815768 -20.59859335 55.37185359 -5.32689985 -22.37949155
973070000 -0.44231930 -9.32621211 -13.48057616 84.90646924 -20.58937790 55.46600113 -5.34510142 -22.34389813
978060000 -0.46502626 -9.40865131 -13.49851163 84.61978981 -20.57154989 55.50253824 -5.34962239 -22.37995997
983050000 -0.48816689 -9.37786708 -13.50907742 84.55819069 -20.55025579 55.39125312 -5.35403637 -22.45840826
988040000 -0.49587060 -9.25860461 -13.52677077 84.56637425 -20.51565550 55.25062051 -5.33646619 -22.53444616
993030000 -0.50735067 -9.10828305 -13.53041831 84.46849646 -20.51867252 55.36380746 -5.35783773 -22.47225493
998020000 -0.50113198 -8.91257291 -13.53358340 84.42208477 -20.43320202 55.56066773 -5.35003377 -22.53103720
1003010000 -0.48142271 -8.84491166 -13.54858773 84.25630369 -20.41881914 55.60738182 -5.36739932 -22.51183579
1008000000 -0.45912498 -8.74166713 -13.54320277 84.22472746 -20.35884773 55.72047549 -5.37576844 -22.44989720
1012990000 -0.43780115 -8.74706145 -13.52759491 84.15306943 -20.28991838 55.62686212 -5.38338852 -22.50023492
1017980000 -0.41031193 -8.92099827 -13.49207269 83.72975202 -20.25074586 55.78054147 -5.38085492 -22.60526443
1022970000 -0.40890243 -8.96565603 -13.53047799 83.58932589 -20.24927640 55.53750509 -5.38251979 -22.49659918
1027960000 -0.40001003 -9.10516274 -13.52240974 83.35324967 -20.24181498 55.56229093 -5.40358861 -22.52427929
1032950000 -0.40233391 -9.16601267 -13.53427311 83.21315177 -20.21666652 55.62718502 -5.42083551 -22.43159287
1037940000 -0.41692932 -9.28598350 -13.55760734 83.10968392 -20.16767067 55.36148906 -5.41535304 -22.59629423
1042930000 -0.43626449 -9.36315285 -13.58138005 82.96855270 -20.12345960 55.36465348 -5.42346204 -22.56683453
1047920000 -0.43655321 -9.48814703 -13.58591611 82.84139326 -20.16348812 55.58074518 -5.43377742 -22.56411366
1052910000 -0.44497207 -9.62406206 -13.60617312 82.51528334 -20.05998086 55.34408428 -5.44568811 -22.63947193
1057900000 -0.46439672 -9.64797343 -13.60604476 82.43686134 -20.06439373 55.43294946 -5.43585421 -22.61768489
1062890000 -0.46380201 -9.76293513 -13.62539387 82.31713991 -20.04486743 55.41383060 -5.45098637 -22.58404363
1067880000 -0.47909070 -9.84788239 -13.63682341 82.28325681 -20.02020346 55.42383815 -5.45910106 -22.74370487
1072870000 -0.48296832 -10.03981295 -13.65310573 82.02801323 -19.97931744 55.49486903 -5.44565772 -22.64828105
1077860000 -0.49292712 -10.11392250 -13.64856830 82.10372996 -19.98969288 55.34919910 -5.45667707 -22.73198795
1082850000 -0.50395014 -10.12101221 -13.65749251 81.83697025 -19.96815788 55.43555883 -5.46756145 -22.79388088
1087840000 -0.51976118 -10.18402442 -13.66189992 81.83438374 -19.94343652 55.68421351 -5.44186513 -22.80953646
1092830000 -0.52814364 -10.21432112 -13.68727432 81.56421737 -19.89868194 55.73406667 -5.45169303 -22.87962321
1097820000 -0.54089999 -10.11794420 -13.66975171 81.52173819 -19.86655912 55.46757616 -5.45804930 -22.94060362
1102810000 -0.55175213 -10.02339141 -13.69153108 81.46913512 -19.84901824 55.59608306 -5.45347954 -22.93857322
1107800000 -0.54897244 -9.92147803 -13.68204243 81.44333934 -19.80175814 55.86663199 -5.45421569 -22.86192528
1112790000 -0.53706216 -9.81043185 -13.69417557 81.30092875 -19.74301211 55.66479959 -5.45934282 -22.94387781
1117780000 -0.52557659 -9.70852975 -13.67877122 81.15756309 -19.70917287 55.78914267 -5.46719064 -22.90698589
1122770000 -0.50290556 -9.69134407 -13.66619348 81.16402028 -19.70320851 55.55790341 -5.47406966 -22.96292757
1127760000 -0.49090934 -9.81231568 -13.65914109 80.78253191 -19.67525630 55.67238657 -5.48464617 -22.89128381
1132750000 -0.49675095 -9.82372389 -13.66317704 80.78516091 -19.63733298 55.54253076 -5.50910657 -22.96446305
1137740000 -0.49777862 -9.92479490 -13.65772454 80.66500482 -19.58435557 55.64112414 -5.50600385 -22.98684830
1142730000 -0.49621137 -9.99977965 -13.67952284 80.44204377 -19.59959760 55.45126607 -5.51197774 -23.02800462
1147720000 -0.50048374 -10.10626713 -13.68170816 80.18717587 -19.52572877 55.49751626 -5.52174307 -22.98267759
1152710000 -0.51158146 -10.14427500 -13.69891163 80.05476922 -19.55717385 55.56353996 -5.52787376 -23.02616837
1157700000 -0.51786819 -10.22413652 -13.70540552 79.99606025 -19.53203510 55.33702352 -5.54207579 -23.12308186
1162690000 -0.51938873 -10.35665589 -13.69810546 79.85974791 -19.49767099 55.57305739 -5.55693710 -23.13948927
1167680000 -0.53265554 -10.47425021 -13.71014193 79.84232901 -19.47755517 55.23290551 -5.54926731 -23.16845000
1172670000 -0.54963431 -10.57096996 -13.73471796 79.61763342 -19.45444276 55.41828768 -5.54558125 -23.28466958
1177660000 -0.55722068 -10.54562396 -13.73398871 79.60040061 -19.38711170 55.62653214 -5.56391268 -23.25708809
1182650000 -0.55805348 -10.68469558 -13.75041805 79.41396549 -19.41401188 55.54911889 -5.55875673 -23.38883099
1187640000 -0.55899660 -10.77773222 -13.75654916 79.38533734 -19.39842744 55.30784766 -5.57537264 -23.40806381
1192630000 -0.56392477 -10.79805198 -13.74222793 79.36744139 -19.34440240 55.44216241 -5.57637795 -23.47137853
1197620000 -0.58524769 -10.84457124 -13.75209455 79.15627706 -19.35812984 55.53452931 -5.56020030 -23.45416661
1202610000 -0.58580530 -10.82914028 -13.77082621 79.06362917 -19.31280596 55.44471891 -5.57268162 -23.41072999
1207600000 -0.59633075 -10.87788375 -13.75642496 78.92659276 -19.33085620 55.64354007 -5.60046430 -23.48628292
1212590000 -0.59196150 -10.83343624 -13.79036895 78.99157990 -19.25706724 55.50456787 -5.58636239 -23.51544876
1217580000 -0.59498638 -10.70992819 -13.76765113 78.86854359 -19.22732639 55.68691011 -5.59622040 -23.48796542
1222570000 -0.60344840 -10.63843769 -13.76597629 78.85276737 -19.20188727 55.65436214 -5.58266349 -23.48986919
1227560000 -0.59088376 -10.51940540 -13.75695299 78.69296034 -19.16352444 55.69954467 -5.57853491 -23.53122971
1232550000 -0.56767711 -10.54624179 -13.75381570 78.61746545 -19.11794342 55.61674756 -5.59363511 -23.48286155
1237540000 -0.56014831 -10.60591098 -13.71307373 78.36509617 -19.09958578 55.49903290 -5.59368735 -23.46274809
1242530000 -0.56712975 -10.61011474 -13.76796278 78.34737753 -19.10768446 55.49743530 -5.61041845 -23.56653175
1247520000 -0.57427198 -10.71851536 -13.76166208 78.17733694 -19.08513481 55.39995211 -5.59886489 -23.59676820
1252510000 -0.56888808 -10.78377201 -13.73773124 77.92601892 -19.02300996 55.48689310 -5.61579388 -23.59462857
1257500000 -0.58223914 -10.81724770 -13.75726439 78.01647571 -19.01346375 55.40191531 -5.62334725 -23.54480407
1262490000 -0.58141049 -10.94459682 -13.74936959 77.77279161 -18.99688737 55.33683124 -5.63873111 -23.73214216
1267480000 -0.59996731 -10.99915743 -13.76157754 77.68417979 -18.96642259 55.51135831 -5.63727515 -23.72719807
1272470000 -0.60769130 -11.09597642 -13.75722918 77.55441566 -18.94068027 55.54010681 -5.64831613 -23.83406611
1277460000 -0.61371083 -11.16478874 -13.75834108 77.50310636 -18.89911493 55.42878197 -5.64612369 -23.81562806
1282450000 -0.62059267 -11.25430367 -13.78857935 77.33385380 -18.90000397 55.53914266 -5.66581177 -23.92777431
1287440000 -0.62321070 -11.31719027 -13.76599350 77.42029174 -18.88675487 55.58779731 -5.65386370 -23.97642778
1292430000 -0.62251863 -11.45091410 -13.79500338 77.06896582 -18.86377158 55.44348074 -5.65141156 -23.96706650
1297420000 -0.62883065 -11.42062394 -13.76752414 77.13490340 -18.85211201 55.49606654 -5.64062721 -24.10419058
1302410000 -0.63070305 -11.44675041 -13.78029964 77.00351669 -18.82408250 55.34077550 -5.64811725 -24.08051720
1307400000 -0.63027292 -11.52996234 -13.78987254 76.93404698 -18.78380030 55.39969203 -5.65221139 -24.11953783
1312390000 -0.63943510 -11.54168927 -13.80367393 76.86102176 -18.76785333 55.59636497 -5.65212887 -24.17569784
1317380000 -0.64573646 -11.50197353 -13.79535473 76.74248437 -18.77290428 55.67477567 -5.64711759 -24.21214698
1322370000 -0.64796815 -11.45248152 -13.78353032 76.76707100 -18.70151763 55.69894308 -5.65625322 -24.10792566
1327360000 -0.64738313 -11.43148471 -13.79120837 76.60596541 -18.68184488 55.56609225 -5.66168903 -24.21891663
1332350000 -0.64391635 -11.37224653 -13.77434530 76.59977245 -18.65870142 55.80466101 -5.66637098 -24.09864434
1337340000 -0.63497898 -11.40896380 -13.74484931 76.59891495 -18.65320705 55.58050800 -5.66817510 -24.20536274
1342330000 -0.63326504 -11.37972072 -13.75681836 76.37785555 -18.58393477 55.59522243 -5.66495914 -24.17478880
1347320000 -0.62949726 -11.35797405 -13.75191050 76.14894036 -18.56582227 55.57920374 -5.68008706 -24.22178364
1352310000 -0.63710359 -11.49547921 -13.77087469 75.99288941 -18.53239603 55.48285113 -5.68833516 -24.23990033
1357300000 -0.64006976 -11.50047723 -13.74832698 75.92548872 -18.53238985 55.32396524 -5.69638209 -24.25377347
1362290000 -0.65002197 -11.58042776 -13.75946077 75.88345175 -18.49872282 55.34026645 -5.69337790 -24.30288911
1367280000 -0.65818230 -11.65466322 -13.76017147 75.60125117 -18.47660711 55.29154997 -5.71417041 -24.32723274
1372270000 -0.65765436 -11.71849291 -13.76942091 75.59137359 -18.44397088 55.29323365 -5.71542682 -24.33235626
1377260000 -0.67739213 -11.71518654 -13.75712255 75.60136141 -18.46768535 55.40517256 -5.72948098 -24.46984518
1382250000 -0.68450428 -11.79278690 -13.78624787 75.45888245 -18.41499289 55.37816238 -5.71744833 -24.42871882
1387240000 -0.68725636 -11.85951217 -13.79816170 75.36963355 -18.41721765 55.43196785 -5.71951229 -24.45206209
1392230000 -0.69188500 -12.00420491 -13.78428546 75.28952649 -18.38625841 55.44098810 -5.72363541 -24.52882484
1397220000 -0.68510769 -12.03764141 -13.78103518 75.38268351 -18.39153682 55.50572740 -5.72277337 -24.52651220
1402210000 -0.69131455 -12.11259777 -13.77524909 75.16831752 -18.33681330 55.39703473 -5.72316456 -24.63360006
1407200000 -0.68870303 -12.19923859 -13.75095773 75.08383255 -18.33091352 55.46961261 -5.72352196 -24.68670465
1412190000 -0.68611571 -12.22174183 -13.75727595 75.03265106 -18.31057232 55.38902187 -5.71919785 -24.66289857
1417180000 -0.68211012 -12.23381736 -13.75912494 74.80728654 -18.26892211 55.34590529 -5.72921072 -24.73430993
1422170000 -0.68100627 -12.25514183 -13.75389078 74.99302739 -18.25935674 55.40015870 -5.71828101 -24.69955317
1427160000 -0.68765705 -12.27666415 -13.75424198 74.87527506 -18.21507594 55.49911764 -5.73807771 -24.78316078
1432150000 -0.69540807 -12.36774933 -13.73338353 74.69413023 -18.22521898 55.40759929 -5.72916459 -24.74240605
1437140000 -0.69735887 -12.29064560 -13.74156430 74.48834330 -18.15225593 55.33956120 -5.73643092 -24.74762759
1442130000 -0.70337637 -12.23142037 -13.76163898 74.62246523 -18.14204558 55.51250682 -5.74665497 -24.85516111
1447120000 -0.69122451 -12.28041762 -13.71248930 74.30327395 -18.09927600 55.45827968 -5.75472115 -24.84381554
1452110000 -0.70150211 -12.19403546 -13.73256505 74.39045908 -18.12644071 55.32652133 -5.74877056 -24.87495160
1457100000 -0.69782371 -12.29777641 -13.71599978 74.05608484 -18.08976583 55.26382008 -5.77362003 -24.96235540
1462090000 -0.71028230 -12.27731106 -13.74038102 74.07161969 -18.05646306 55.35470979 -5.77337245 -24.96311045
1467080000 -0.70147562 -12.28812882 -13.73060568 73.96599319 -18.04202167 55.34234929 -5.77344977 -24.97416936
1472070000 -0.71979162 -12.42051353 -13.73767426 73.88137022 -18.01738829 55.23350927 -5.78222075 -25.03398301
1477060000 -0.71535873 -12.46794000 -13.72433610 73.72289814 -17.97973691 55.24236917 -5.78612270 -25.15945406
1482050000 -0.72194648 -12.49987706 -13.72519228 73.66984364 -17.96903911 55.21565733 -5.79352494 -25.20614154
1487040000 -0.74573211 -12.57956113 -13.72412344 73.69769704 -17.97945089 55.16380647 -5.79438031 -25.22430295
1492030000 -0.73728235 -12.58599121 -13.71403179 73.70947054 -17.96644284 55.16880944 -5.80770240 -25.20651094
1497020000 -0.74235950 -12.60193892 -13.73764664 73.48565817 -17.91475329 55.29587271 -5.79311493 -25.36078865
1502010000 -0.73552337 -12.67232527 -13.70828014 73.38962336 -17.90143953 55.42097108 -5.80115376 -25.44565318
1507000000 -0.73005650 -12.81325863 -13.73434087 73.49592268 -17.87327176 55.04001954 -5.79908314 -25.45400689
1511990000 -0.73308158 -12.78117621 -13.71247296 73.42704936 -17.83991877 55.16385986 -5.80746108 -25.39317118
1516980000 -0.71803922 -12.86704642 -13.69944856 73.34221302 -17.80314782 55.32242920 -5.81202095 -25.48260527
1521970000 -0.71794969 -12.89633048 -13.69599667 73.06442375 -17.79668440 55.07972013 -5.81217914 -25.52152072
1526960000 -0.71445498 -12.94718462 -13.67651347 73.17069572 -17.74631011 55.19235627 -5.80957665 -25.48656643
1531950000 -0.70731406 -13.02187405 -13.69610590 73.07459254 -17.74997748 55.38807708 -5.81163949 -25.54842938
1536940000 -0.72579545 -13.06589926 -13.69628874 73.01040115 -17.72138382 55.07506005 -5.82020984 -25.51942053
1541930000 -0.71926954 -13.04532815 -13.67836498 72.81119477 -17.70675148 55.13795815 -5.81687117 -25.57109242
1546920000 -0.71803238 -13.02348082 -13.65958528 72.69360833 -17.67524612 55.14291139 -5.82696627 -25.57835582
1551910000 -0.73070745 -13.11082452 -13.65121880 72.68828616 -17.64478932 55.23779026 -5.83106786 -25.62626247
1556900000 -0.72754834 -13.06013561 -13.64950884 72.49172932 -17.62911196 55.06968289 -5.83297348 -25.73474567
1561890000 -0.74069602 -13.06726225 -13.64833058 72.48891772 -17.61072553 54.93078852 -5.83044800 -25.69362410
1566880000 -0.74625518 -13.07461565 -13.67105935 72.45763819 -17.61261743 55.11003159 -5.84339135 -25.73867380
1571870000 -0.74277949 -13.18882419 -13.65064348 72.16950566 -17.56570633 55.00863160 -5.85713810 -25.79706653
1576860000 -0.76314695 -13.10552398 -13.66619427 72.22743728 -17.54483670 54.90067850 -5.85373275 -25.80435229
1581850000 -0.76571834 -13.23692803 -13.66692058 72.02504215 -17.53735216 55.11309683 -5.84817443 -25.90809163
1586840000 -0.77544553 -13.17692109 -13.63054587 72.12062423 -17.53191802 54.99304891 -5.84564169 -25.86535889
1591830000 -0.77652830 -13.29352824 -13.66501438 71.88381186 -17.49768876 54.82975998 -5.85096977 -25.99191729
1596820000 -0.78123414 -13.37349139 -13.64261219 71.86873869 -17.47277341 55.04350820 -5.85929220 -25.97944083
1601810000 -0.77955578 -13.39797403 -13.64742935 71.77354169 -17.46825408 55.21421587 -5.86292053 -25.99073852
1606800000 -0.78141587 -13.45967827 -13.64528874 71.75940302 -17.43550989 54.91380488 -5.87193545 -26.03782592
1611790000 -0.77189964 -13.55398464 -13.63054068 71.79716883 -17.42442367 54.98198595 -5.86454522 -26.16391730
1616780000 -0.77219791 -13.62558710 -13.61218039 71.60265895 -17.38845246 54.84665781 -5.85679100 -26.18626083
1621770000 -0.76865173 -13.63336867 -13.61064326 71.64814629 -17.38597903 54.94783401 -5.86205853 -26.17148879
1626760000 -0.76922742 -13.65854071 -13.62552198 71.68284755 -17.35070585 54.98091409 -5.88014699 -26.27750588
1631750000 -0.75296337 -13.75040423 -13.59220655 71.46863915 -17.31475642 54.87713313 -5.86997608 -26.32159645
1636740000 -0.75820449 -13.73623207 -13.60245159 71.36147264 -17.29285655 54.92242331 -5.86403377 -26.31043424
1641730000 -0.74574548 -13.82911847 -13.58456724 71.24322683 -17.28704928 54.87931468 -5.88354694 -26.29935705
1646720000 -0.75061301 -13.88720029 -13.58673089 71.06740558 -17.26154639 54.82416022 -5.88484699 -26.32576564
1651710000 -0.74748356 -13.89651820 -13.57835406 71.04707569 -17.23920768 54.79136163 -5.89390439 -26.38825930
1656700000 -0.75254936 -13.88348097 -13.57533365 71.00628606 -17.20587275 54.77210964 -5.89342302 -26.38688766
1661690000 -0.74587036 -13.88113370 -13.55739392 70.87400212 -17.19516183 54.66011980 -5.91217008 -26.49048861
1666680000 -0.76318950 -14.01273866 -13.56500121 70.63748028 -17.18613076 54.70119516 -5.89903053 -26.41306668
1671670000 -0.76407917 -13.94003055 -13.55377752 70.66067774 -17.15142829 54.72539266 -5.92240175 -26.48036874
1676660000 -0.77279172 -13.96134972 -13.56693871 70.60815254 -17.14937768 54.80030148 -5.92251618 -26.47514571
1681650000 -0.77629173 -13.99961344 -13.54650767 70.53678755 -17.13107213 54.72896000 -5.92755729 -26.55850863
1686640000 -0.77999710 -14.05390415 -13.55900358 70.54473202 -17.09177429 54.53155245 -5.91917127 -26.64625766
1691630000 -0.78866780 -14.06474853 -13.53205922 70.37537703 -17.08238162 54.52900674 -5.93956929 -26.59881187
1696620000 -0.80264894 -14.09675264 -13.56269868 70.39264472 -17.05896209 54.76375807 -5.93841905 -26.66127447
1701610000 -0.80640029 -14.12636254 -13.54545201 70.33467763 -17.04668728 54.82275962 -5.94055072 -26.71592387
1706600000 -0.80468206 -14.24121004 -13.53083123 70.29217954 -17.02232565 54.65569988 -5.93758910 -26.74722459
1711590000 -0.81036780 -14.30405311 -13.53764035 70.21120203 -16.99990136 54.73047026 -5.95102396 -26.87205418
1716580000 -0.79028976 -14.34882029 -13.50062202 70.04556911 -17.00617900 54.69085434 -5.94338394 -26.78413604
1721570000 -0.80166404 -14.37407608 -13.52818033 70.02084251 -16.99010315 54.70091456 -5.94296324 -26.97669863
1726560000 -0.79953883 -14.48354836 -13.51615589 70.01835879 -16.95142007 54.62128850 -5.94570206 -26.91021721
1731550000 -0.77953360 -14.51818224 -13.50251733 70.02813018 -16.90901004 54.55457331 -5.93591149 -26.90991415
1736540000 -0.78190476 -14.62159680 -13.49043012 69.65529129 -16.92158304 54.52394922 -5.93685502 -27.00819446
1741530000 -0.77167694 -14.60923246 -13.48439903 69.64240963 -16.91377065 54.58892753 -5.93922873 -27.00966743
1746520000 -0.76203091 -14.66143436 -13.46288297 69.73572696 -16.84709670 54.44652652 -5.93776205 -27.05750066
1751510000 -0.77230680 -14.71672145 -13.47345228 69.58482245 -16.83734248 54.52615456 -5.95859192 -27.11593108
1756500000 -0.76621937 -14.72554697 -13.45712262 69.49929517 -16.83102310 54.51319567 -5.95784736 -27.17423640
1761490000 -0.76584064 -14.77591547 -13.44771787 69.45799931 -16.80430920 54.36041997 -5.95058505 -27.14279311
1766480000 -0.77179345 -14.78904883 -13.44816104 69.32680935 -16.76077176 54.33970173 -5.97078883 -27.10641721
1771470000 -0.77161833 -14.85489677 -13.44309657 69.02593656 -16.77441166 54.19697275 -5.97389232 -27.29568397
1776460000 -0.78691343 -14.85834443 -13.46061275 69.18560936 -16.74436681 54.29562414 -5.97291703 -27.23320157
1781450000 -0.79383621 -14.88286403 -13.45734148 68.97128505 -16.76133872 54.40003903 -5.99065925 -27.31212712
1786440000 -0.79280078 -14.90316381 -13.43690232 68.95393771 -16.71715536 54.07791696 -5.99893169 -27.31841261
1791430000 -0.80834921 -14.97109355 -13.43706230 68.80145052 -16.71943995 54.03518052 -5.99952054 -27.32848326
1796420000 -0.81258695 -14.99762479 -13.43638354 68.78339339 -16.67912099 54.20885748 -5.99017183 -27.54686068
1801410000 -0.81365994 -15.05496843 -13.42440426 68.75165426 -16.65532555 54.05569200 -6.00033868 -27.51823811
1806400000 -0.82490555 -15.07186145 -13.44000227 68.53532828 -16.65693744 54.05979600 -5.99589537 -27.63087381
1811390000 -0.82637641 -15.04748405 -13.40202869 68.70165717 -16.64478320 54.05003880 -6.00057995 -27.51125600
1816380000 -0.83232959 -15.16872037 -13.42888751 68.62477550 -16.60896850 54.05774575 -6.00401711 -27.62632231
1821370000 -0.82228854 -15.22429124 -13.40327623 68.65934470 -16.59818465 54.08359994 -6.00740159 -27.78408792
1826360000 -0.81169366 -15.26345224 -13.40522914 68.63303882 -16.57121211 54.32258693 -6.02151449 -27.65896071
1831350000 -0.80835773 -15.30409353 -13.39021732 68.41988492 -16.56231657 54.03531988 -6.00289255 -27.90168054
1836340000 -0.79834254 -15.37658959 -13.37018387 68.26833067 -16.52737527 54.25518539 -5.98620136 -27.82865020
1841330000 -0.80448168 -15.40480984 -13.38394144 68.29642515 -16.51307169 53.99325659 -6.00089997 -27.84935602
1846320000 -0.78979621 -15.58769837 -13.33787418 68.16843279 -16.47847691 54.03476474 -6.00576312 -27.81618935
1851310000 -0.78762301 -15.50283423 -13.36636884 68.06072014 -16.45617575 54.05105922 -6.01163066 -27.88901235
1856300000 -0.78921483 -15.61513583 -13.36040822 67.91973373 -16.45481758 53.94811801 -6.01193779 -27.91533929
1861290000 -0.78220724 -15.62161441 -13.34396202 67.74295430 -16.45661502 53.98138730 -6.02799363 -27.78738936
1866280000 -0.77995882 -15.63760998 -13.33201046 67.79525933 -16.42938612 53.66816135 -6.01578500 -27.83270947
1871270000 -0.77802006 -15.77916362 -13.33202096 67.63237076 -16.38090922 53.64492382 -6.01977766 -27.95291574
1876260000 -0.80031013 -15.76422021 -13.32352603 67.59534184 -16.39537679 53.72421806 -6.02046156 -27.93051858
1881250000 -0.79390031 -15.75631296 -13.34021955 67.63098231 -16.35514034 53.67893745 -6.03459841 -27.97049383
1886240000 -0.80102844 -15.76742952 -13.33157698 67.42593635 -16.36864494 53.68671024 -6.06832587 -28.01026997
1891230000 -0.80736743 -15.82263906 -13.32036482 67.34217798 -16.35575979 53.67998095 -6.05219680 -28.13796450
1896220000 -0.81580640 -15.84982780 -13.32465951 67.33868510 -16.31775125 53.66780731 -6.06446185 -28.05618616
1901210000 -0.82173732 -15.81910675 -13.30650994 67.28591623 -16.29786390 53.62483091 -6.08160347 -28.20429367
1906200000 -0.83496205 -15.91748756 -13.29848179 67.22988402 -16.31818393 53.57629391 -6.06994432 -28.26489960
1911190000 -0.82924212 -15.99250877 -13.30045937 67.22474051 -16.27177842 53.71348888 -6.08121222 -28.36158119
1916180000 -0.84247247 -16.03214077 -13.29778875 67.05058063 -16.27542517 53.57660763 -6.08652425 -28.32234926
1921170000 -0.82811042 -16.13831872 -13.28796117 66.87698216 -16.24732523 53.51291071 -6.07539609 -28.45855866
1926160000 -0.83452791 -16.12265986 -13.27409702 67.21309643 -16.23926968 53.61151657 -6.08049305 -28.47355266
1931150000 -0.83832815 -16.23005555 -13.28082537 66.94994424 -16.19779032 53.58095860 -6.07507193 -28.51954802
1936140000 -0.82912360 -16.30672637 -13.25336994 66.76628294 -16.15754309 53.47734119 -6.08581685 -28.61829039
1941130000 -0.82603652 -16.23952237 -13.25857569 66.88172435 -16.16243612 53.61360276 -6.07837000 -28.59492599
1946120000 -0.81409332 -16.34660825 -13.26318824 66.89559993 -16.14968322 53.49317346 -6.06252823 -28.59715726
1951110000 -0.80294200 -16.45459630 -13.23463697 66.66097925 -16.11842990 53.41527169 -6.06803722 -28.69972230
1956100000 -0.79614924 -16.42173587 -13.21968393 66.54853739 -16.07651852 53.57879480 -6.06759083 -28.62385893
1961090000 -0.79995365 -16.42112316 -13.22096066 66.51747893 -16.08466900 53.39593510 -6.06873764 -28.73852967
1966080000 -0.79832668 -16.57637827 -13.21678930 66.42718020 -16.06280545 53.35333317 -6.06477907 -28.73522037
1971070000 -0.79667259 -16.63724159 -13.20190419 66.28955556 -16.03998586 53.03765236 -6.08244504 -28.77692777
1976060000 -0.80157195 -16.65084712 -13.19085874 66.14122783 -16.03467202 53.16662194 -6.07100737 -28.78083746
1981050000 -0.79576623 -16.60260781 -13.21037714 65.85122255 -16.02864725 52.92920196 -6.08858671 -28.73699795
1986040000 -0.79319890 -16.61097582 -13.15734701 66.04110324 -15.99922301 53.17542656 -6.09678502 -28.79978972
1991030000 -0.80658788 -16.66881800 -13.18012961 66.07812167 -16.01193847 53.22952929 -6.09682645 -28.90424334
1996020000 -0.82945810 -16.73458459 -13.22139063 65.79788090 -15.99105400 53.10793808 -6.11306785 -28.94475349
2001010000 -0.81315336 -16.79579599 -13.19074221 65.55299792 -15.96896426 52.91501583 -6.12016435 -28.94972468
2006000000 -0.82097763 -16.79409729 -13.19271572 65.64006347 -15.93584258 52.99281968 -6.11948732 -28.98834387
2010990000 -0.83455538 -16.80855941 -13.19132849 65.68131645 -15.93933033 52.99509574 -6.11495706 -29.04192451
2015980000 -0.83621402 -16.83902195 -13.19062310 65.58803978 -15.93013261 52.95263242 -6.14188634 -29.15393414
2020970000 -0.83946288 -16.94389908 -13.17527590 65.54097930 -15.91312106 52.87007131 -6.13180973 -29.21665005
2025960000 -0.83722765 -16.91442247 -13.15177572 65.42487085 -15.87170624 52.96097267 -6.14375109 -29.32450728
2030950000 -0.85614905 -17.00599122 -13.17222025 65.40412588 -15.88768056 52.97564536 -6.14134808 -29.22899338
2035940000 -0.84422971 -17.08620983 -13.14128994 65.42772271 -15.88170533 52.89128708 -6.14290097 -29.39679259
2040930000 -0.82526082 -17.20871524 -13.12937712 65.33440119 -15.84720524 52.90908892 -6.13717938 -29.37345561
2045920000 -0.83032170 -17.18588157 -13.13968595 65.51720860 -15.80301392 52.77690525 -6.13420110 -29.43393651
2050910000 -0.82724824 -17.28354393 -13.09420724 65.31631388 -15.79108658 52.69812137 -6.14335623 -29.40858425
2055900000 -0.82690946 -17.27481844 -13.10999385 65.13019069 -15.81058466 52.90171939 -6.14615833 -29.43799884
2060890000 -0.80968802 -17.37364957 -13.10857842 65.03944950 -15.76370033 52.74234342 -6.14316105 -29.50133178
2065880000 -0.80601018 -17.47528596 -13.09219871 65.02848086 -15.74714916 52.89839665 -6.13263192 -29.48270232
2070870000 -0.80472236 -17.52419443 -13.08633905 64.80269762 -15.70284841 52.59248154 -6.14274109 -29.57123632
2075860000 -0.80390176 -17.50742788 -13.09436512 64.85555870 -15.71984642 52.49715517 -6.13924011 -29.56515193
2080850000 -0.81133771 -17.49816096 -13.07471703 64.86908817 -15.73633558 52.50074343 -6.14456652 -29.54908076
2085840000 -0.80061194 -17.55292112 -13.06544634 64.61869440 -15.68145076 52.47816163 -6.13641811 -29.60604107
2090830000 -0.81307713 -17.61221392 -13.06394892 64.48312201 -15.66701614 52.32349094 -6.15015139 -29.60699390
2095820000 -0.81893252 -17.54105536 -13.05756554 64.58414764 -15.64884375 52.41900863 -6.14795974 -29.67854335
2100810000 -0.82360289 -17.63507283 -13.07511849 64.33944980 -15.66317470 52.27937545 -6.17256581 -29.70908011
2105800000 -0.83954000 -17.64569558 -13.06514743 64.37839000 -15.64289295 52.33635250 -6.17968974 -29.77304549
2110790000 -0.84562703 -17.59486838 -13.06752436 64.21997469 -15.63639454 52.21509795 -6.17274904 -29.76019093
2115780000 -0.85098407 -17.72558194 -13.06900326 64.16520918 -15.61639966 52.28392693 -6.18404430 -29.94595635
2120770000 -0.85364394 -17.72893585 -13.03600192 64.28872993 -15.58809936 52.42480190 -6.17082437 -29.99731412
2125760000 -0.86044652 -17.79793083 -13.06635213 64.11183099 -15.60668831 52.39773353 -6.19872918 -30.05238395
2130750000 -0.86081129 -17.82498457 -13.04064741 64.01708523 -15.56690668 52.35751706 -6.17911719 -30.18969135
2135740000 -0.86480877 -17.87363821 -13.03816101 64.10960386 -15.55355203 52.23637463 -6.20077274 -30.16262037
2140730000 -0.85765769 -17.97644574 -13.02211420 64.00129872 -15.54435518 52.20563240 -6.19839512 -30.17422897
2145720000 -0.85889755 -18.00136711 -13.00490074 63.84092599 -15.53241900 52.09388710 -6.18627168 -30.22365552
2150710000 -0.85574759 -18.09527009 -13.02709547 63.94868538 -15.48279073 52.10185249 -6.18270721 -30.24690362
2155700000 -0.84191716 -18.09965476 -12.99579393 63.82704399 -15.48844681 52.34945874 -6.19435197 -30.19492379
2160690000 -0.83869965 -18.22063676 -12.99536091 63.64142642 -15.46006711 52.11878583 -6.20433623 -30.32711794
2165680000 -0.82711023 -18.30247458 -12.98778757 63.65141162 -15.43104657 51.95301278 -6.19895351 -30.32125266
2170670000 -0.83972864 -18.32330961 -12.98053938 63.61071911 -15.47869022 51.93262009 -6.19612321 -30.26273228
2175660000 -0.81659986 -18.36266608 -12.95997456 63.56023545 -15.43238391 52.07111615 -6.20643637 -30.35662650
2180650000 -0.82282724 -18.39643373 -12.96965823 63.44821931 -15.40643497 51.90807153 -6.21294864 -30.42237928
2185640000 -0.82028296 -18.44784059 -12.97629285 63.39322445 -15.39232420 51.75077641 -6.20206262 -30.39763709
2190630000 -0.81972496 -18.45383952 -12.95372546 63.15893617 -15.38672753 51.79200610 -6.22967631 -30.47336078
2195620000 -0.82173346 -18.45556096 -12.94093879 62.97519688 -15.39075972 51.80635028 -6.23928154 -30.47516575
2200610000 -0.82813207 -18.55543671 -12.95770226 62.98137493 -15.35999877 51.68605478 -6.23724073 -30.49514494
2205600000 -0.84273226 -18.53031312 -12.94377280 62.95850681 -15.33783838 51.49918699 -6.23447403 -30.56857323
2210590000 -0.85078581 -18.53409021 -12.96408766 62.79073587 -15.34915483 51.76305343 -6.25233880 -30.60047738
2215580000 -0.85890348 -18.50028191 -12.94640023 62.96281006 -15.36252693 51.58632938 -6.26623244 -30.59304197
2220570000 -0.88465324 -18.48053205 -12.94375246 62.94124607 -15.30830091 51.60342372 -6.26276769 -30.71144255
2225560000 -0.86982245 -18.66297083 -12.93364002 62.62604965 -15.30463420 51.52518126 -6.26262283 -30.80884220
2230550000 -0.88216293 -18.63323087 -12.91925352 62.74374940 -15.29060279 51.59056553 -6.27369010 -30.78994883
2235540000 -0.88376698 -18.66676875 -12.91393316 62.77929814 -15.29130709 51.48577045 -6.28019358 -30.86740220
2240530000 -0.88504822 -18.69788670 -12.92736866 62.54101730 -15.26029653 51.56611876 -6.26802856 -30.95800968
2245520000 -0.88456681 -18.83991353 -12.90921651 62.50819975 -15.24407730 51.58238011 -6.26018899 -30.96950330
2250510000 -0.88685294 -18.86962470 -12.92414463 62.60978792 -15.22756768 51.54756624 -6.26320575 -31.02895352
2255500000 -0.87898767 -18.92887927 -12.89311067 62.46340810 -15.22765812 51.60187785 -6.26667644 -31.04528145
2260490000 -0.87820999 -19.00862295 -12.88767105 62.54276696 -15.22312423 51.42486887 -6.25751204 -31.19591500
2265480000 -0.87262378 -19.06015345 -12.86743017 62.38108714 -15.16278484 51.28778184 -6.25280531 -31.16323039
2270470000 -0.86182730 -19.13791671 -12.87410384 62.19756533 -15.16898372 51.35353166 -6.27082935 -31.17343518
2275460000 -0.85257600 -19.16494065 -12.84938361 62.22000217 -15.12832514 51.21348160 -6.26091902 -31.16692801
2280450000 -0.86143946 -19.11558363 -12.83925058 62.09554842 -15.14279023 51.34310027 -6.26328371 -31.23548448
2285440000 -0.85335498 -19.26344538 -12.84639832 61.84251193 -15.12244096 51.27674409 -6.27056733 -31.21370315
2290430000 -0.84691763 -19.31683745 -12.83881583 61.81314307 -15.12768433 51.19384068 -6.27096503 -31.30429099
2295420000 -0.85459441 -19.28974795 -12.83126811 61.79074124 -15.10811150 51.05704934 -6.28608671 -31.22195444
2300410000 -0.86656905 -19.30754639 -12.82561347 61.80028070 -15.09698017 50.96139673 -6.27539834 -31.19279847
2305400000 -0.87361965 -19.32259266 -12.80819141 61.68605295 -15.08925442 51.05380889 -6.29299485 -31.30463771
2310390000 -0.87762351 -19.28170765 -12.82746198 61.68706040 -15.05875039 50.98516307 -6.29812845 -31.33149472
2315380000 -0.89990557 -19.31197431 -12.84890933 61.49735049 -15.04831175 50.87949604 -6.30320207 -31.47315660
2320370000 -0.89217844 -19.33137653 -12.81873688 61.52032619 -15.07195219 50.92531601 -6.33157882 -31.51084145
2325360000 -0.91462744 -19.34479997 -12.82519993 61.21057142 -15.04432511 50.69624537 -6.31711551 -31.59370673
2330350000 -0.90814697 -19.39954080 -12.81672327 61.30246884 -15.04381817 50.84117024 -6.32605637 -31.58696990
2335340000 -0.91256660 -19.35078381 -12.79264459 61.20660054 -15.03987378 50.83438201 -6.31811136 -31.68576309
2340330000 -0.91845041 -19.44073373 -12.80547992 61.36243760 -15.02941068 50.88137881 -6.33444734 -31.69953575
2345320000 -0.93209681 -19.45318422 -12.80994320 61.19844710 -15.00445695 50.80378244 -6.33212037 -31.70535441
2350310000 -0.92686460 -19.52305879 -12.78536785 61.27612613 -14.99633281 50.67540756 -6.32224584 -31.83442151
2355300000 -0.92475823 -19.54315225 -12.78263796 61.31259431 -14.95791031 50.97445657 -6.33176436 -31.76939856
2360290000 -0.92215618 -19.62814247 -12.78811659 61.19533114 -14.94017631 50.82581675 -6.33146205 -31.88839509
2365280000 -0.91581215 -19.74179915 -12.76562623 61.06599833 -14.94565659 50.72184281 -6.31922407 -31.90475320
2370270000 -0.90939631 -19.77607051 -12.76897431 61.09067514 -14.93917225 50.88918703 -6.32618792 -31.98850185
2375260000 -0.91062786 -19.78653233 -12.75110708 61.07830699 -14.91148495 50.67591254 -6.32857930 -31.98008649
2380250000 -0.90538198 -19.91167080 -12.74402336 60.92355776 -14.89165593 50.70302956 -6.32657719 -31.92494348
2385240000 -0.89431790 -19.92984641 -12.71393105 60.77807717 -14.86852552 50.58778633 -6.33848721 -32.11376154
2390230000 -0.89507462 -19.95476681 -12.74216137 60.81923147 -14.88651844 50.74553715 -6.34505186 -31.96509138
2395220000 -0.88661728 -19.99865881 -12.72552315 60.64674606 -14.83591021 50.57048905 -6.34100711 -32.01346438
2400210000 -0.89693302 -20.03523909 -12.72550094 60.57187783 -14.86421313 50.46979379 -6.33623578 -32.07363323
2405200000 -0.89829616 -19.99727167 -12.72267882 60.59179155 -14.81443561 50.32340252 -6.35397602 -32.04982098
2410190000 -0.89886117 -20.04503550 -12.70624877 60.40464492 -14.80757349 50.28198748 -6.34220413 -32.14089952
2415180000 -0.91969525 -19.99849525 -12.70279821 60.29878091 -14.78832260 50.39504885 -6.36600917 -32.14323036
2420170000 -0.91534239 -20.04687877 -12.70950750 60.27622697 -14.81615631 50.18746076 -6.36021413 -32.20782052
2425160000 -0.92906661 -20.08505052 -12.69464255 60.25094595 -14.78143972 50.18388431 -6.37261652 -32.26929893
2430150000 -0.94302452 -20.00931359 -12.68800265 60.26105214 -14.78590682 50.22039724 -6.38317104 -32.27490655
2435140000 -0.94496021 -20.13592160 -12.70434192 60.07609649 -14.77755790 50.28252270 -6.36925287 -32.34440312
2440130000 -0.96437419 -20.06648878 -12.70158730 60.12550212 -14.76310842 50.16231733 -6.38755926 -32.45904756
2445120000 -0.96251420 -20.12382168 -12.68425168 60.13990734 -14.76335305 50.07009993 -6.38221799 -32.51897992
2450110000 -0.96658506 -20.12460056 -12.66840618 60.06850877 -14.73812381 50.35734233 -6.38627055 -32.57753993
2455100000 -0.97027633 -20.18386715 -12.65555964 60.02809413 -14.72096003 50.21049741 -6.38843865 -32.57327370
2460090000 -0.97397416 -20.23754302 -12.66970616 60.15715072 -14.72519552 50.19369103 -6.38224951 -32.54778266
2465080000 -0.97053990 -20.32189199 -12.65863705 59.83666723 -14.68056915 50.07044457 -6.38595624 -32.72377290
2470070000 -0.96340951 -20.39641833 -12.63783879 59.87284696 -14.67868860 50.14610622 -6.38255413 -32.72642713
2475060000 -0.96090252 -20.48480737 -12.63938301 59.73841001 -14.67571112 50.05208631 -6.39443210 -32.74980120
2480050000 -0.95285504 -20.52175751 -12.63108367 59.81544240 -14.67071835 49.96137131 -6.37260546 -32.80854075
2485040000 -0.94269843 -20.55929293 -12.61032050 59.70541817 -14.63231390 49.96089936 -6.37734013 -32.78057546
2490030000 -0.94795452 -20.57025669 -12.63435057 59.64506166 -14.62201822 49.94493021 -6.38427786 -32.73715650
2495020000 -0.94954174 -20.62184965 -12.61071630 59.39821864 -14.60660211 49.78077520 -6.38034399 -32.92706725
2500010000 -0.94130562 -20.65443916 -12.60340835 59.49245673 -14.59928731 49.66915112 -6.39026159 -32.85796480
2505000000 -0.95280680 -20.69655169 -12.61420009 59.16964412 -14.58802015 49.73633293 -6.39594749 -32.86580258
2509990000 -0.94792597 -20.66331339 -12.59992004 59.27530759 -14.58846225 49.75984279 -6.39613141 -32.88151306
2514980000 -0.96197078 -20.69484933 -12.61631698 59.20498729 -14.58600933 49.76521634 -6.41115225 -32.87236837
2519970000 -0.96890831 -20.66160356 -12.59934609 59.00414966 -14.58894426 49.53426001 -6.42459131 -33.03228512
2524960000 -0.96745022 -20.75550189 -12.59384685 59.04491516 -14.54495864 49.43295680 -6.43382663 -33.01174262
2529950000 -0.97959307 -20.70334404 -12.59339361 59.00213243 -14.56205996 49.53770687 -6.44615057 -33.01515572
2534940000 -0.99379193 -20.70986544 -12.57881233 58.96001847 -14.53182353 49.45620415 -6.44063561 -33.25383436
2539930000 -1.00706641 -20.80880784 -12.56594855 58.97476727 -14.52491451 49.54366290 -6.43820916 -33.18728205
2544920000 -1.00999959 -20.76099544 -12.60183565 58.78803895 -14.53450167 49.35323489 -6.43125978 -33.31526052
2549910000 -1.01906975 -20.76461799 -12.59623110 58.84174919 -14.51562824 49.48589101 -6.43468323 -33.35407222
2554900000 -1.01879123 -20.76832766 -12.58732055 58.77771527 -14.48700759 49.59181485 -6.45598992 -33.34135300
2559890000 -1.01678465 -20.81266966 -12.56638327 58.91862854 -14.49655606 49.54273969 -6.45252389 -33.43561507
2564880000 -1.02405013 -20.80501800 -12.57841416 58.89233561 -14.48357868 49.39867380 -6.43279796 -33.48258164
2569870000 -1.02256065 -20.88501310 -12.56935109 58.81321291 -14.47033889 49.45753887 -6.45438617 -33.52996587
2574860000 -1.02023073 -20.99255377 -12.53235527 58.55804923 -14.45788337 49.40448694 -6.42998370 -33.63756331
2579850000 -1.02699693 -21.00778384 -12.53906025 58.57318108 -14.44152120 49.31798926 -6.43569843 -33.68417657
2584840000 -1.01624128 -21.10704494 -12.53436709 58.54771566 -14.43236011 49.27555580 -6.43869443 -33.62897182
2589830000 -1.00042180 -21.14851334 -12.51537657 58.55819820 -14.39801489 49.32215009 -6.43020195 -33.69745871
2594820000 -0.99940459 -21.20908276 -12.51619232 58.26412861 -14.39508504 49.28962400 -6.42310119 -33.70513402
2599810000 -1.00608492 -21.22018349 -12.52712101 58.55837149 -14.36399951 49.02461157 -6.44137765 -33.83100855
2604800000 -1.00316692 -21.18911600 -12.48845169 58.37311388 -14.38575844 49.22414515 -6.44962207 -33.73642659
2609790000 -1.00570757 -21.30371746 -12.49682391 58.20192868 -14.38139643 49.04787465 -6.44330053 -33.76967549
2614780000 -1.00263269 -21.29947900 -12.49256923 58.26952967 -14.33975060 48.96161473 -6.44615597 -33.67999707
2619770000 -1.00946656 -21.29204862 -12.50634208 58.03508563 -14.33566372 49.03923653 -6.45911500 -33.75498636
2624760000 -1.01559641 -21.31444631 -12.48836194 58.02444627 -14.34046821 48.90469124 -6.46553072 -33.89372258
2629750000 -1.01864200 -21.28035371 -12.47036220 57.94969394 -14.30340683 48.97131133 -6.47623234 -33.86458253
2634740000 -1.03601510 -21.30181980 -12.50090616 57.97386174 -14.34531975 48.87185736 -6.48132543 -33.95468426
2639730000 -1.04593538 -21.35345752 -12.49851501 57.88143806 -14.29753489 48.95519617 -6.49326954 -33.94537467
2644720000 -1.03982703 -21.28904681 -12.49252225 58.02365052 -14.32637850 48.91541498 -6.49439286 -34.01083153
2649710000 -1.05123947 -21.30460071 -12.47488152 57.82068387 -14.29503841 48.86262632 -6.49285986 -34.06852607
2654700000 -1.07335991 -21.35774279 -12.47518973 57.80769690 -14.28953703 48.77004228 -6.48854072 -34.10670904
2659690000 -1.07556619 -21.40500690 -12.48007308 57.87509079 -14.26724771 48.78197883 -6.49785508 -34.27222017
2664680000 -1.08290889 -21.40290871 -12.43896933 57.66613783 -14.26095558 48.72185578 -6.49693625 -34.33621383
2669670000 -1.07879644 -21.40990519 -12.44359793 57.70076646 -14.24408089 48.70701674 -6.49793063 -34.34392157
2674660000 -1.08053210 -21.45011507 -12.45512360 57.74121227 -14.25477063 48.84545138 -6.48883557 -34.34657923
2679650000 -1.07557188 -21.49314640 -12.42692573 57.62634266 -14.23282936 48.75871134 -6.49441522 -34.32051111
2684640000 -1.07596640 -21.51499229 -12.43696986 57.63298542 -14.19975167 48.77847886 -6.49968882 -34.53023960
2689630000 -1.07028445 -21.60255420 -12.40904250 57.57721160 -14.20487239 48.66799593 -6.50242462 -34.55458332
2694620000 -1.06043337 -21.63782626 -12.40287294 57.55754038 -14.16584277 48.60317865 -6.48780888 -34.55784720
2699610000 -1.06097073 -21.74471769 -12.40775332 57.42892704 -14.18325967 48.67409728 -6.49540118 -34.59656506
2704600000 -1.06465034 -21.66517315 -12.41059991 57.47113688 -14.15988295 48.47618203 -6.48961074 -34.50248933
2709590000 -1.06205258 -21.82931017 -12.39772752 57.25723166 -14.14687625 48.60707821 -6.49935201 -34.49651890
2714580000 -1.05867554 -21.84509109 -12.39537868 57.20728026 -14.15934186 48.54527572 -6.50812570 -34.58802443
2719570000 -1.06227371 -21.80651731 -12.39344073 57.12986779 -14.12911622 48.39510633 -6.51022580 -34.64602399
2724560000 -1.06254789 -21.83318731 -12.38904013 57.03506270 -14.13222352 48.36438357 -6.50390133 -34.68100730
2729550000 -1.06613033 -21.86749007 -12.38336818 57.07932592 -14.11525742 48.22298221 -6.52271101 -34.60044046
2734540000 -1.08132807 -21.80449069 -12.36580365 56.94428413 -14.12361617 48.21124763 -6.52764509 -34.63319194
2739530000 -1.09104141 -21.73195164 -12.37131819 56.95711011 -14.10415020 48.26643971 -6.52603876 -34.77074289
2744520000 -1.09096977 -21.89799508 -12.36284875 56.73541935 -14.09682228 48.16921996 -6.52874318 -34.84783831
2749510000 -1.09272703 -21.85439300 -12.36524525 56.89487221 -14.07667560 48.31370460 -6.54051645 -34.86044102
2754500000 -1.12009500 -21.80728624 -12.35829935 56.72751773 -14.09926671 48.16675138 -6.53889490 -34.96652165
2759490000 -1.11941756 -21.91621111 -12.34937304 56.64785399 -14.06867516 48.18647228 -6.54770967 -35.02092106
2764480000 -1.12959771 -21.86279726 -12.35621764 56.80136272 -14.07585522 48.24805918 -6.56814068 -35.08755154
2769470000 -1.13674183 -21.85389735 -12.35933558 56.63836153 -14.03869159 48.15236239 -6.55882836 -35.07552813
2774460000 -1.14561384 -21.94276030 -12.35467140 56.67366400 -14.01226771 48.06624731 -6.56195952 -35.17184136
2779450000 -1.13617867 -21.95773931 -12.32921192 56.63448116 -14.04605549 48.26171628 -6.56852026 -35.24967407
2784440000 -1.14858049 -22.00503902 -12.33263316 56.67967927 -14.01432254 48.08610783 -6.55236525 -35.25813833
2789430000 -1.14098126 -22.03807196 -12.32324737 56.66623034 -14.02160885 48.24723982 -6.53984919 -35.33098777
2794420000 -1.13069635 -22.09394241 -12.31337319 56.51218426 -13.98825503 48.05863402 -6.53393658 -35.40081547
2799410000 -1.13152141 -22.17879221 -12.30875463 56.47731888 -13.97143746 47.98787134 -6.54125344 -35.32417557
2804400000 -1.12994856 -22.30057059 -12.29303940 56.32919826 -13.97305460 48.00215837 -6.54593796 -35.39424510
2809390000 -1.12520064 -22.27871695 -12.30301839 56.39913488 -13.95119219 47.80522143 -6.54788935 -35.35964329
2814380000 -1.12434347 -22.28982447 -12.26911200 56.26627455 -13.93903763 47.76437961 -6.54897230 -35.35636554
2819370000 -1.12430928 -22.33827852 -12.26956344 56.27471595 -13.92631779 47.99828915 -6.55156730 -35.44268611
2824360000 -1.12831691 -22.30627873 -12.28792079 56.18114495 -13.94333908 47.84442051 -6.55836023 -35.50983047
2829350000 -1.12344801 -22.35462106 -12.25809365 55.99374697 -13.92681972 47.79310150 -6.55300958 -35.49115407
2834340000 -1.12870073 -22.34808143 -12.24852322 56.04466899 -13.90884366 47.71815581 -6.56825991 -35.55022819
2839330000 -1.14607841 -22.40761329 -12.27597310 56.06443124 -13.91458827 47.61043526 -6.57787737 -35.48180068
2844320000 -1.13125488 -22.35470747 -12.28636118 55.91653604 -13.87841071 47.68552165 -6.57954791 -35.48283280
2849310000 -1.14771204 -22.43223362 -12.25448224 55.83408659 -13.89199203 47.55612911 -6.58478833 -35.61076442
2854300000 -1.16002943 -22.32013522 -12.26778157 55.70750825 -13.87814270 47.59875450 -6.60189762 -35.75038257
2859290000 -1.16568821 -22.36652159 -12.26227239 55.87788607 -13.88935848 47.44334721 -6.61466227 -35.76054990
2864280000 -1.16757685 -22.37805985 -12.26210298 55.76914007 -13.89161566 47.54139100 -6.62739109 -35.81054760
2869270000 -1.17521337 -22.45052301 -12.26646014 55.76753182 -13.88043684 47.54585834 -6.61540462 -35.94997848
2874260000 -1.18669004 -22.39991494 -12.24945302 55.77023908 -13.86236562 47.60648519 -6.61266106 -35.87618261
2879250000 -1.20565406 -22.46570688 -12.24568085 55.78104030 -13.83174695 47.55076407 -6.61508845 -36.00493249
2884240000 -1.19167041 -22.49004357 -12.24028892 55.66964445 -13.83617098 47.54073522 -6.61473759 -36.05504384
2889230000 -1.20453091 -22.59948898 -12.22053595 55.67424606 -13.83079417 47.52977670 -6.59404257 -36.01268821
2894220000 -1.19719197 -22.58527896 -12.21065166 55.63733830 -13.80218628 47.58964378 -6.62587803 -36.20346780
2899210000 -1.19292368 -22.62180779 -12.21619328 55.58683910 -13.78395902 47.40652757 -6.62457372 -36.13723937
2904200000 -1.18951769 -22.68741062 -12.19328857 55.50281276 -13.78391026 47.51428872 -6.60965859 -36.15998787
2909190000 -1.17985917 -22.72853208 -12.18456902 55.43396789 -13.77673006 47.42906608 -6.61711123 -36.23492778
2914180000 -1.18712073 -22.82760550 -12.18957811 55.42983354 -13.77095917 47.36534532 -6.61060293 -36.22829209
2919170000 -1.18325946 -22.82213353 -12.17713341 55.29445972 -13.76793082 47.24357167 -6.60882586 -36.23468740
2924160000 -1.18149505 -22.86583345 -12.17157862 55.34798682 -13.75273704 47.44206376 -6.62905522 -36.31015983
2929150000 -1.18785240 -22.91440943 -12.17089226 55.20265989 -13.75419361 47.18458294 -6.61771100 -36.24591990
2934140000 -1.18433618 -22.91077843 -12.17999244 55.13771553 -13.72490245 47.27216022 -6.63406844 -36.31626794
2939130000 -1.18595933 -22.85833877 -12.17392565 55.16945365 -13.70671900 47.22206478 -6.62221554 -36.25025928
2944120000 -1.18754121 -22.92360226 -12.15691487 54.95818177 -13.74218461 47.17157600 -6.64700022 -36.26126206
2949110000 -1.19313456 -22.93178415 -12.15948643 55.07499804 -13.72283160 47.20789702 -6.64620765 -36.33303672
2954100000 -1.21051029 -22.83679358 -12.16106026 55.07059660 -13.72502692 47.21157728 -6.65239224 -36.40962587
2959090000 -1.20802279 -22.88622827 -12.15356309 55.02001644 -13.70119603 47.06650923 -6.64957137 -36.47478434
2964080000 -1.21448999 -22.93231712 -12.13193353 54.95791164 -13.66518376 47.01486209 -6.66987113 -36.54854464
2969070000 -1.22940507 -22.88723414 -12.13262086 54.94851511 -13.69621490 47.18547471 -6.67105181 -36.58677246
2974060000 -1.24005286 -22.88590382 -12.14804269 55.00157971 -13.68310110 47.14856988 -6.66413778 -36.59441481
2979050000 -1.24520561 -22.98101701 -12.14180920 54.85414833 -13.63995657 47.19564388 -6.68547994 -36.76877089
2984040000 -1.24526836 -22.94532934 -12.12831935 54.90802502 -13.65779395 46.96199383 -6.68129338 -36.72178622
2989030000 -1.25065409 -23.02233682 -12.10577962 54.82936910 -13.62926683 47.07883675 -6.69963191 -36.71973079
2994020000 -1.25349662 -23.07483306 -12.11609228 54.85072646 -13.62008294 47.08300092 -6.69664481 -36.78874326
2999010000 -1.26052570 -23.09792891 -12.10794174 54.66985681 -13.62434930 46.87286105 -6.67733979 -36.93853693
3004000000 -1.26294878 -23.14800675 -12.10309234 54.73955599 -13.61929740 46.91233312 -6.68469772 -36.90780336
3008990000 -1.26126410 -23.22694316 -12.08558354 54.65223036 -13.60512602 47.07124004 -6.67308140 -36.94980623
3013980000 -1.25134536 -23.31138930 -12.08335033 54.64104126 -13.57682921 46.86977739 -6.67708960 -36.97404900
3018970000 -1.25713149 -23.31997673 -12.07699169 54.47252266 -13.57750730 46.94345711 -6.68224637 -36.97699863
3023960000 -1.24608781 -23.28134451 -12.08314506 54.63771451 -13.55434742 46.95036894 -6.67565704 -37.13508331
3028950000 -1.24382072 -23.45397304 -12.05511429 54.28250222 -13.55500039 46.84428920 -6.68199389 -37.02867801
3033940000 -1.23924026 -23.42045535 -12.03361441 54.41073713 -13.55816618 46.69779833 -6.68912738 -37.06814238
3038930000 -1.23435997 -23.41531662 -12.07314993 54.39619433 -13.54232799 46.74212587 -6.70402861 -37.04966364
3043920000 -1.24539384 -23.43867925 -12.05949802 54.16607592 -13.52381045 46.67342075 -6.70313104 -37.16837491
3048910000 -1.24217320 -23.49222975 -12.07022798 54.27930512 -13.53656311 46.74931266 -6.70027276 -37.11903532
3053900000 -1.24628170 -23.42726284 -12.05725306 54.21006059 -13.50577809 46.51297757 -6.71371289 -37.23432886
3058890000 -1.25359176 -23.48794801 -12.03106705 54.17740373 -13.50182693 46.60201378 -6.70623654 -37.15545449
3063880000 -1.26191404 -23.37855464 -12.03250862 54.14121101 -13.49950632 46.46318449 -6.71730192 -37.23664140
3068870000 -1.26588272 -23.44490446 -12.02467151 53.98417839 -13.50294374 46.52991980 -6.72674698 -37.31046495
3073860000 -1.27950302 -23.46100052 -12.01825508 53.97568489 -13.49029721 46.66838975 -6.71025911 -37.29785226
3078850000 -1.29017413 -23.44817235 -12.00650645 54.07310664 -13.46071950 46.61449050 -6.73368049 -37.34115394
3083840000 -1.28637397 -23.47382500 -12.00474049 53.96598506 -13.45658389 46.49810462 -6.74769436 -37.42042796
3088830000 -1.30040348 -23.53883555 -12.00864151 53.86702768 -13.45901210 46.38551925 -6.72913849 -37.51346642
3093820000 -1.30111232 -23.55752340 -11.98406294 53.86560444 -13.45047528 46.55370153 -6.73961391 -37.58092596
3098810000 -1.30636312 -23.63555428 -11.97806852 53.87803018 -13.44473517 46.49549207 -6.74010902 -37.59986166
3103800000 -1.31254728 -23.69273838 -11.98941779 53.78002198 -13.43192386 46.44120380 -6.73813012 -37.74679941
3108790000 -1.31162815 -23.74534294 -11.98182533 53.79544243 -13.41156237 46.51293556 -6.74701414 -37.71522622
3113780000 -1.31537487 -23.80006004 -11.97314996 53.75674671 -13.41600618 46.36528461 -6.75345899 -37.78768609
3118770000 -1.31342599 -23.82182553 -11.95786336 53.70655758 -13.40247210 46.44145349 -6.74582056 -37.81595412
3123760000 -1.29103445 -23.89946940 -11.95938272 53.72243608 -13.39180443 46.33549967 -6.74074623 -37.78694665
3128750000 -1.29974158 -23.94191411 -11.95037970 53.54893344 -13.38152384 46.35439380 -6.75368728 -37.76247197
3133740000 -1.29398612 -24.00545481 -11.93809019 53.54641819 -13.35930076 46.24759219 -6.74336457 -37.91011879
3138730000 -1.29259487 -24.06206881 -11.93904463 53.53229144 -13.37225980 46.21413523 -6.74145122 -37.95245134
3143720000 -1.28789372 -24.02921586 -11.93146771 53.49718698 -13.37947674 46.08089842 -6.74539165 -37.89749022
3148710000 -1.28463160 -23.99831548 -11.94519335 53.42454764 -13.35864492 46.09932156 -6.76526191 -37.94674848
3153700000 -1.29981349 -24.07580902 -11.93334214 53.27579638 -13.32678796 46.01376368 -6.74859663 -37.91887661
3158690000 -1.29980889 -24.06938006 -11.91568504 53.37234922 -13.33546333 46.07499982 -6.75190960 -37.94757422
3163680000 -1.30045554 -24.06559336 -11.92922065 53.32910029 -13.32613300 46.01871491 -6.76302523 -37.99494755
3168670000 -1.29811197 -24.05849737 -11.90721293 53.23236086 -13.31425516 45.91646370 -6.76026862 -38.13253009
3173660000 -1.30939650 -24.01352748 -11.89885178 53.18878136 -13.31224604 45.98982246 -6.77345753 -38.12569547
3178650000 -1.32284190 -24.04950640 -11.92839842 53.20829363 -13.29475235 45.86621722 -6.78450459 -38.08927538
3183640000 -1.32983209 -24.04863966 -11.91429086 53.23417789 -13.28393283 45.97071183 -6.78174067 -38.32779234
3188630000 -1.33776077 -24.08613412 -11.90754994 53.16302009 -13.28350199 46.10091030 -6.78017498 -38.28553250
3193620000 -1.35180153 -24.13014217 -11.91095850 53.05705034 -13.27868183 45.77408893 -6.78800356 -38.23551772
3198610000 -1.34998443 -24.19495155 -11.89074941 53.14098230 -13.27839887 46.00488356 -6.79039108 -38.36940475
3203600000 -1.34905112 -24.22566510 -11.88192848 52.89608297 -13.23995228 45.83331629 -6.80124056 -38.41110445
3208590000 -1.36098821 -24.30598884 -11.88203519 52.95653784 -13.22690966 45.78712651 -6.79300533 -38.38339104
3213580000 -1.35498820 -24.34031638 -11.87091462 52.96285313 -13.25380196 45.77235068 -6.78410862 -38.51796024
3218570000 -1.34725256 -24.46446143 -11.85919943 52.74449189 -13.22324959 45.84692469 -6.79930796 -38.56287542
3223560000 -1.36001503 -24.45071943 -11.83851145 52.83975692 -13.22141370 45.77348984 -6.80147292 -38.60984008
3228550000 -1.35362216 -24.58928721 -11.85060839 52.78547504 -13.22159220 45.69652787 -6.80014354 -38.57662059
3233540000 -1.34558933 -24.60679645 -11.82626323 52.61531779 -13.20167884 45.67319940 -6.80084183 -38.72421673
3238530000 -1.34473427 -24.60627985 -11.82891826 52.64520836 -13.18378001 45.76062195 -6.80887459 -38.67196400
3243520000 -1.34211172 -24.69009578 -11.81639530 52.64614955 -13.17209058 45.46813966 -6.79180811 -38.66987459
3248510000 -1.33267068 -24.70623967 -11.81233548 52.59125883 -13.17867086 45.61783831 -6.79165956 -38.76172151
3253500000 -1.33351544 -24.69993109 -11.82536757 52.54918789 -13.15702476 45.63224785 -6.80487251 -38.75516367
3258490000 -1.32969917 -24.72004590 -11.80062052 52.37228232 -13.13943996 45.42328867 -6.81580179 -38.83924645
3263480000 -1.33187272 -24.73455824 -11.80481756 52.40042077 -13.14433795 45.59628248 -6.81425471 -38.82017579
3268470000 -1.34667642 -24.70232136 -11.81676973 52.35059383 -13.13775601 45.40466366 -6.80874016 -38.80532484
3273460000 -1.34329165 -24.73713524 -11.78936661 52.30059083 -13.11643939 45.51617599 -6.81501269 -38.85130790
3278450000 -1.35679181 -24.69609283 -11.79032880 52.20394787 -13.13871812 45.37159450 -6.82587478 -38.95213523
3283440000 -1.36623035 -24.73210729 -11.79338360 52.22099592 -13.10448255 45.30217578 -6.83118430 -38.93064802
3288430000 -1.36375799 -24.75500037 -11.77576155 52.22474574 -13.09881355 45.25959728 -6.83816531 -38.89786679
3293420000 -1.38137129 -24.70300094 -11.79559917 52.27397410 -13.09190400 45.37091278 -6.84219017 -39.00249546
3298410000 -1.38356788 -24.78896474 -11.78024175 52.12253283 -13.09491115 45.25077567 -6.85690565 -39.13662201
3303400000 -1.38763138 -24.86626887 -11.76914234 52.08605241 -13.09353335 45.33916014 -6.85874510 -39.13534242
3308390000 -1.39927594 -24.80816478 -11.76348466 52.14293411 -13.05846447 45.25047735 -6.85790178 -39.12115312
3313380000 -1.39529372 -24.98446676 -11.76183617 51.96527017 -13.06686804 45.14124789 -6.85571097 -39.28849285
3318370000 -1.39764310 -25.05797275 -11.75806795 51.92507255 -13.05913290 45.28401284 -6.86183419 -39.16412871
3323360000 -1.40417678 -25.18011675 -11.74516439 51.78422844 -13.03286033 45.19497005 -6.86677019 -39.18493885
3328350000 -1.39111138 -25.18198270 -11.74606522 52.03992229 -13.04069040 44.99902611 -6.85303983 -39.22054196
3333340000 -1.39217255 -25.21894141 -11.72923903 51.88464540 -13.03634960 45.16665460 -6.86020762 -39.34678181
3338330000 -1.39165904 -25.33765115 -11.72468466 51.69408889 -13.01168853 45.04875864 -6.87519465 -39.33051905
3343320000 -1.38735512 -25.34981063 -11.73715828 51.74706854 -13.01043404 44.98608837 -6.87312637 -39.37129900
3348310000 -1.38083494 -25.39686965 -11.72901384 51.75406720 -12.99840917 45.07101356 -6.86322530 -39.47450540
3353300000 -1.38341292 -25.46008605 -11.72176606 51.59036262 -12.99840743 44.95307326 -6.87646550 -39.44703663
3358290000 -1.38893246 -25.40644032 -11.71916149 51.53950396 -12.99854211 44.83473604 -6.87154140 -39.44297512
3363280000 -1.38381187 -25.40549673 -11.70539717 51.57540536 -12.99123407 44.86376960 -6.87851106 -39.45535146
3368270000 -1.37335445 -25.47599949 -11.69772467 51.64187769 -12.97750476 44.79750419 -6.88446927 -39.54685507
3373260000 -1.37767944 -25.49909211 -11.69478796 51.44140975 -12.99099130 44.81310922 -6.89034247 -39.62010389
3378250000 -1.39271423 -25.46323519 -11.70406750 51.34082788 -12.97742174 44.73821100 -6.90116303 -39.46730110
3383240000 -1.39060082 -25.44821267 -11.68117034 51.35228927 -12.97457099 44.64248070 -6.89979676 -39.61520670
3388230000 -1.40135121 -25.45367830 -11.69016669 51.36826004 -12.95540527 44.71816845 -6.91830071 -39.69122397
3393220000 -1.41541949 -25.45123229 -11.69466670 51.14160508 -12.94019698 44.68775801 -6.90759576 -39.69029982
3398210000 -1.41006141 -25.45047006 -11.66389158 51.21153744 -12.93659789 44.77284348 -6.90939797 -39.58837861
3403200000 -1.41637974 -25.49683950 -11.66391685 51.19614549 -12.93021927 44.79373300 -6.91759371 -39.72829304
3408190000 -1.42531507 -25.56172045 -11.65992627 51.28754525 -12.91826456 44.56033683 -6.89987137 -39.85545811
3413180000 -1.43168221 -25.70748346 -11.65989964 51.11545524 -12.90713282 44.62636569 -6.92482550 -39.82508616
3418170000 -1.43728624 -25.69348637 -11.65838218 51.03277119 -12.87902586 44.59150989 -6.92790976 -39.87871464
3423160000 -1.44306557 -25.75661843 -11.65572181 50.99717971 -12.91046617 44.54909296 -6.91399938 -40.01752122
3428150000 -1.44525182 -25.86258944 -11.63606760 51.13443964 -12.89932254 44.52132152 -6.92838968 -40.00803118
3433140000 -1.44626483 -25.90351536 -11.64429707 51.01687001 -12.88927729 44.38376121 -6.93552070 -40.19863620
3438130000 -1.44663940 -25.96744274 -11.63040983 50.94795426 -12.88558236 44.35515451 -6.92275572 -40.00913852
3443120000 -1.44275842 -26.07126290 -11.60404885 50.83328351 -12.85864639 44.34430655 -6.90120158 -40.16214410
3448110000 -1.43233145 -26.12765614 -11.64372276 50.84068329 -12.87009437 44.42765828 -6.91868060 -40.10812421
3453100000 -1.43832918 -26.17978498 -11.61863946 50.72909738 -12.84926091 44.25808358 -6.94590605 -40.09652510
3458090000 -1.42427253 -26.18782089 -11.59756494 50.74668833 -12.85058099 44.29799125 -6.92277586 -40.17676682
3463080000 -1.42186129 -26.22851300 -11.61458367 50.68823890 -12.84034564 44.28679824 -6.93363496 -40.21133968
3468070000 -1.42515716 -26.27025889 -11.60426961 50.66327373 -12.82913362 44.13071660 -6.92623961 -40.24235707
3473060000 -1.43012952 -26.20619534 -11.60713544 50.60593988 -12.84168354 44.10905332 -6.94305915 -40.24591566
3478050000 -1.42330327 -26.24542497 -11.61032298 50.50110661 -12.80187662 44.09964359 -6.95181283 -40.38477528
3483040000 -1.42373197 -26.23785430 -11.61148801 50.51650390 -12.82236767 44.01214911 -6.94642483 -40.24855677
3488030000 -1.43495763 -26.27580989 -11.59188102 50.40327974 -12.81141155 44.02539928 -6.96476021 -40.35570941
3493020000 -1.44170346 -26.21224873 -11.59356034 50.49768782 -12.81440476 44.06457547 -6.98249835 -40.32115101
3498010000 -1.44293427 -26.22964259 -11.56923749 50.42816172 -12.79539405 44.10944116 -6.96285179 -40.41730343
3503000000 -1.46114179 -26.27001719 -11.59136357 50.31250551 -12.79728136 44.02646913 -6.98043574 -40.38931151
3507990000 -1.46224269 -26.30714820 -11.57159538 50.23660422 -12.77191597 44.01242233 -6.96427835 -40.49831505
3512980000 -1.46743001 -26.29105861 -11.56777967 50.40844200 -12.78504523 43.93687464 -6.98857224 -40.58129788
3517970000 -1.47666038 -26.37465611 -11.58059771 50.35786709 -12.75688095 44.03927014 -6.97199243 -40.62079868
3522960000 -1.46959357 -26.47821562 -11.55791245 50.25696339 -12.74707639 44.05474628 -6.97439140 -40.60749574
3527950000 -1.48372146 -26.52842575 -11.54479177 50.21803545 -12.75030313 43.92507409 -6.98068466 -40.65792318
3532940000 -1.48414802 -26.62358038 -11.55272146 50.10577948 -12.73782200 43.82884736 -6.98430035 -40.61779876
3537930000 -1.48500337 -26.66087917 -11.53186875 50.08656880 -12.74308541 43.94133509 -6.99261945 -40.70710886
3542920000 -1.48045916 -26.70293285 -11.53450223 50.05276860 -12.74229257 43.78728050 -6.99684808 -40.71106380
3547910000 -1.48153568 -26.83776298 -11.53352353 49.99948587 -12.74267082 43.85255693 -6.98631939 -40.83244859
3552900000 -1.47954124 -26.90785083 -11.52214827 49.88777201 -12.70562344 43.69729963 -6.98649479 -40.84375035
3557890000 -1.46973896 -26.96347819 -11.51923407 49.87469087 -12.70952434 43.81295325 -6.98209258 -40.80500343
3562880000 -1.46157587 -26.96239455 -11.51739179 49.86594570 -12.69864205 43.62988279 -6.99089772 -40.89452279
3567870000 -1.47885177 -27.01708037 -11.53745803 49.76389159 -12.70106582 43.53970778 -6.99627445 -41.03357427
3572860000 -1.47152198 -27.09848067 -11.51636697 49.75650384 -12.67549396 43.44809806 -6.99727604 -40.94297393
3577850000 -1.46923315 -27.01149559 -11.50050844 49.61154587 -12.67347176 43.50319348 -6.99785297 -41.00296717
3582840000 -1.46275003 -27.11737676 -11.50692123 49.68901162 -12.68858000 43.45685010 -7.01505674 -40.93183740
3587830000 -1.47108656 -27.04500136 -11.50006375 49.59848125 -12.67814176 43.52195701 -7.02568881 -41.07269134
3592820000 -1.48553245 -27.07170494 -11.49556530 49.61092493 -12.67450926 43.37065944 -7.01839127 -41.10830607
3597810000 -1.47829139 -27.10697860 -11.47181082 49.46923516 -12.66068841 43.28155915 -7.01244835 -41.10424247
3602800000 -1.49052005 -27.10599773 -11.49402163 49.50133370 -12.65508719 43.38302749 -7.02790887 -41.10066996
3607790000 -1.48350517 -27.01606666 -11.48983205 49.60304603 -12.63835806 43.42528709 -7.01407091 -41.23673745
3612780000 -1.49613554 -27.09976599 -11.48181903 49.38871074 -12.63960204 43.31024760 -7.03071783 -41.33097798
3617770000 -1.51451218 -27.10988961 -11.49110919 49.44478871 -12.64999618 43.29552307 -7.03391893 -41.29762848
3622760000 -1.52129531 -27.09428329 -11.48038048 49.38374786 -12.63773241 43.33410769 -7.03771988 -41.34157221
3627750000 -1.51706753 -27.22344629 -11.46452592 49.32722197 -12.61368408 43.39137776 -7.03143589 -41.40581157
3632740000 -1.52584047 -27.23936361 -11.46523492 49.38291784 -12.61003830 43.23393859 -7.03436497 -41.46719615
3637730000 -1.52445352 -27.31515548 -11.44940774 49.15357891 -12.61518915 43.17819838 -7.03289382 -41.54016360
3642720000 -1.52959762 -27.44330381 -11.45636649 49.29576521 -12.60449284 43.09758561 -7.02917231 -41.53661636
3647710000 -1.51460970 -27.53394627 -11.43707946 49.16678195 -12.58889201 43.17679582 -7.03413476 -41.56073276
3652700000 -1.52294729 -27.59259917 -11.46100301 49.15266287 -12.57867105 43.06087136 -7.03555945 -41.60646503
3657690000 -1.51880677 -27.68734691 -11.43107563 49.01493732 -12.59649773 43.04422266 -7.04613092 -41.63644713
3662680000 -1.52041714 -27.72532098 -11.43329737 49.01169630 -12.56087149 43.13487481 -7.03364792 -41.65641116
3667670000 -1.51789490 -27.76267513 -11.41581657 49.05574517 -12.54532323 42.97735970 -7.04136207 -41.66958852
3672660000 -1.51233164 -27.80429466 -11.43409353 48.94739561 -12.56963727 43.00295406 -7.04860695 -41.65084831
3677650000 -1.51146297 -27.85402036 -11.42195383 48.81828534 -12.55990185 43.03621527 -7.06981441 -41.75771592
3682640000 -1.51564636 -27.84500989 -11.43922680 48.94896041 -12.54518876 42.78922667 -7.07469651 -41.62333249
3687630000 -1.50643141 -27.81836497 -11.41754811 48.95018629 -12.54627615 42.94956798 -7.05498132 -41.72877041
3692620000 -1.51757512 -27.90677760 -11.41775136 48.76752631 -12.55272266 42.83689998 -7.05765441 -41.79166647
3697610000 -1.51366045 -27.88326688 -11.42305241 48.82992175 -12.54421285 42.85018181 -7.07624264 -41.74677972
3702600000 -1.52261728 -27.89704738 -11.42044165 48.67114091 -12.51685385 42.77554063 -7.06606702 -41.77859556
3707590000 -1.52724217 -27.83200007 -11.40718632 48.78201300 -12.52125199 42.81159778 -7.06578413 -41.90221268
3712580000 -1.53421483 -27.82139272 -11.39510191 48.68413517 -12.50943306 42.81763859 -7.08428762 -42.03384618
3717570000 -1.54136103 -27.96560926 -11.40329234 48.64594802 -12.52338811 42.65580521 -7.07852512 -41.94887325
3722560000 -1.53770874 -27.90415726 -11.38971926 48.63405908 -12.50275198 42.84023047 -7.08684975 -41.98242134
3727550000 -1.54900522 -27.87648073 -11.39024172 48.59686873 -12.49057326 42.88869925 -7.08782807 -42.07455224
3732540000 -1.55797925 -28.00332777 -11.39255570 48.55547633 -12.49049040 42.67490601 -7.09783642 -42.06722768
3737530000 -1.55425122 -28.02580451 -11.37667458 48.50443932 -12.48556504 42.76996944 -7.09589085 -42.15487875
3742520000 -1.56854589 -28.14859836 -11.38311713 48.48056202 -12.49394787 42.75279457 -7.09947103 -42.10617407
3747510000 -1.57020667 -28.18097648 -11.36723029 48.50480449 -12.46768277 42.59524894 -7.09292425 -42.16756998
3752500000 -1.56597958 -28.25815849 -11.35439519 48.38318043 -12.46372619 42.52912202 -7.08939289 -42.17819267
3757490000 -1.56431166 -28.35798656 -11.35797040 48.31009494 -12.45623394 42.57981637 -7.10717555 -42.26722815
3762480000 -1.56526668 -28.39302501 -11.34543875 48.27466388 -12.43887222 42.51333446 -7.09991142 -42.33905928
3767470000 -1.56656511 -28.43964966 -11.34615494 48.37753527 -12.44540843 42.44785157 -7.09358003 -42.30345063
3772460000 -1.56268526 -28.50576475 -11.36264464 48.14576772 -12.43057374 42.48524969 -7.09813394 -42.39089350
3777450000 -1.54592205 -28.52935647 -11.34828089 48.19995850 -12.42865708 42.38629953 -7.10359931 -42.36677101
3782440000 -1.55721674 -28.55584098 -11.34043854 48.19711238 -12.42564303 42.48450042 -7.09729547 -42.42266305
3787430000 -1.55068337 -28.61561518 -11.33898497 48.23513910 -12.41565585 42.37240788 -7.10829371 -42.40710526
3792420000 -1.56157928 -28.58334049 -11.34348134 48.06851820 -12.43118220 42.34949497 -7.11241220 -42.54359033
3797410000 -1.55532350 -28.62755067 -11.34743190 48.02914050 -12.41045257 42.21372626 -7.12891314 -42.48378241
3802400000 -1.56754159 -28.66335314 -11.30982722 47.94508366 -12.39596863 42.15474075 -7.12186182 -42.56972443
3807390000 -1.56070459 -28.71167696 -11.31426210 47.92038690 -12.40917110 42.25322174 -7.13135323 -42.68536654
3812380000 -1.57012508 -28.65535550 -11.32609552 47.91430195 -12.38483742 42.20082706 -7.13261964 -42.55147062
3817370000 -1.57533507 -28.65001223 -11.32853748 47.78460197 -12.38537126 42.14407529 -7.13187450 -42.54497595
3822360000 -1.57648724 -28.61992737 -11.30607673 47.87599357 -12.39054353 42.23008300 -7.13650826 -42.62017760
3827350000 -1.58842226 -28.70354178 -11.31352245 47.77191678 -12.38923846 42.06254754 -7.15069616 -42.75543481
3832340000 -1.59533055 -28.72860579 -11.29070860 47.78712110 -12.36683017 42.08354043 -7.13867835 -42.79056203
3837330000 -1.60184538 -28.73771187 -11.29421295 47.61477328 -12.37892694 42.06987377 -7.14158979 -42.75678324
3842320000 -1.60573647 -28.74398538 -11.29778707 47.69139046 -12.35136672 42.10902900 -7.15304565 -42.80894608
3847310000 -1.60673870 -28.80380113 -11.29702119 47.76058773 -12.34485361 42.03519368 -7.14061657 -42.83966310
3852300000 -1.62005863 -28.89477794 -11.29536979 47.62016848 -12.35637169 41.98053764 -7.14718661 -42.96877425
3857290000 -1.62186714 -28.93341395 -11.27689231 47.62769516 -12.33243833 41.95978668 -7.15209944 -42.83111119
3862280000 -1.61741597 -29.06151612 -11.27188073 47.47550815 -12.33498764 41.88283886 -7.15650683 -42.94980886
3867270000 -1.61738594 -29.07510376 -11.27681663 47.48006232 -12.33339754 41.94355781 -7.16800436 -42.98336761
3872260000 -1.61402750 -29.12787105 -11.26555229 47.39386495 -12.31604039 41.86170755 -7.15019241 -43.06061494
3877250000 -1.59829290 -29.15413973 -11.26241890 47.36389222 -12.32129757 41.83515137 -7.16252240 -43.03085830
3882240000 -1.61255983 -29.25732825 -11.26373603 47.39857416 -12.30343628 41.80296866 -7.15793294 -43.04367937
3887230000 -1.59360589 -29.24696005 -11.24784089 47.38960191 -12.29842206 41.88273173 -7.17266219 -43.19266986
3892220000 -1.59891358 -29.19818035 -11.25246917 47.27568611 -12.29615599 41.71849677 -7.16361737 -43.10124980
3897210000 -1.61836904 -29.26117572 -11.26123397 47.18799897 -12.30110477 41.67759385 -7.17253193 -43.20362697
3902200000 -1.60430504 -29.31488922 -11.24430235 47.31949514 -12.27412353 41.57456383 -7.16938376 -43.18100952
3907190000 -1.61138116 -29.25375116 -11.26952367 47.12555391 -12.29355419 41.62048899 -7.18345543 -43.14953491
3912180000 -1.61483052 -29.34539875 -11.27029306 47.16519913 -12.27985667 41.67128311 -7.17608914 -43.32306926
3917170000 -1.62036630 -29.32382431 -11.25235733 47.06490337 -12.27783840 41.58115974 -7.18508465 -43.28977148
3922160000 -1.62156025 -29.32217530 -11.23830184 46.90087859 -12.25496172 41.57521008 -7.17974621 -43.35432115
3927150000 -1.61927497 -29.27369591 -11.23093660 47.04608882 -12.26465033 41.56695098 -7.18120932 -43.38449608
3932140000 -1.63240327 -29.31425103 -11.22880313 47.00551295 -12.26460864 41.42448129 -7.18135581 -43.38127553
3937130000 -1.64435823 -29.33835877 -11.22488727 46.98620736 -12.23832982 41.62124033 -7.18722710 -43.40617695
3942120000 -1.64743220 -29.41821360 -11.21840625 46.94144493 -12.24630934 41.50056819 -7.20209327 -43.55116281
3947110000 -1.64656896 -29.38738070 -11.20724284 46.88988912 -12.24180745 41.47511873 -7.19489654 -43.48383335
3952100000 -1.65246128 -29.40458061 -11.21596423 46.83911126 -12.23121280 41.49374057 -7.20879879 -43.55063333
3957090000 -1.66545935 -29.46437528 -11.20798984 46.93049234 -12.21830700 41.47429356 -7.20500040 -43.53777913
3962080000 -1.66175071 -29.51826465 -11.20856699 46.79629197 -12.23099628 41.48053577 -7.21745060 -43.57823796
3967070000 -1.66421086 -29.62538146 -11.19664097 46.66706815 -12.22413427 41.37535330 -7.18956687 -43.65062452
3972060000 -1.65981969 -29.65164382 -11.20662317 46.80138160 -12.19164110 41.33439920 -7.21914483 -43.68953042
3977050000 -1.66195509 -29.72285061 -11.19934512 46.70708917 -12.19997996 41.20481719 -7.19876111 -43.73591781
3982040000 -1.65991258 -29.75659603 -11.20045856 46.66985638 -12.21175159 41.19935170 -7.22285442 -43.75833286
3987030000 -1.66029507 -29.79658105 -11.18515701 46.51599399 -12.20281572 41.28307475 -7.22350815 -43.69676307
3992020000 -1.65723861 -29.84417137 -11.18673790 46.51514077 -12.19296001 41.15185163 -7.20431191 -43.80335086
3997010000 -1.65982116 -29.89231087 -11.18846989 46.47836319 -12.18833028 41.19046937 -7.22064071 -43.82571648
4002000000 -1.65117857 -29.91467376 -11.17841696 46.46082884 -12.19582728 41.09647737 -7.22632297 -43.89206282
4006990000 -1.64783109 -29.89503164 -11.18020949 46.44326449 -12.16407024 41.12793394 -7.22155221 -43.83206740
4011980000 -1.65202238 -29.95105850 -11.18218761 46.35279752 -12.19458523 41.05901516 -7.22965098 -43.91830468
4016970000 -1.65549130 -29.91821417 -11.16379049 46.44657900 -12.15161177 40.98878048 -7.22574334 -44.04149983
4021960000 -1.65789208 -29.90778443 -11.16825937 46.40203394 -12.16363227 40.96094451 -7.22739626 -44.01718037
4026950000 -1.66015043 -29.80487256 -11.16458460 46.42584093 -12.16002047 41.04606844 -7.24478623 -43.98855238
4031940000 -1.66460361 -29.84218284 -11.17022686 46.22072041 -12.15403145 40.89251301 -7.24161312 -44.08961108
4036930000 -1.67616839 -29.88773553 -11.15156134 46.23967486 -12.11650175 40.98219933 -7.23129872 -44.11209485
4041920000 -1.67231308 -29.88244484 -11.14902335 46.24562939 -12.14764495 40.97381072 -7.23057941 -44.18307119
4046910000 -1.68509478 -29.86545221 -11.14201448 46.28380082 -12.11857750 41.03224596 -7.23582957 -44.16470321
4051900000 -1.69724283 -29.87426558 -11.14145486 46.15418889 -12.13631742 41.08909147 -7.25876777 -44.10103145
4056890000 -1.70330389 -29.98262242 -11.13583575 46.20244539 -12.13076439 41.10220770 -7.25161795 -44.13437645
4061880000 -1.71019716 -30.03316110 -11.17129102 46.06283688 -12.11146511 40.88895817 -7.26595614 -44.14832348
4066870000 -1.70479219 -29.98663745 -11.13635399 45.98311122 -12.12575728 40.89470221 -7.26407244 -44.30733247
4071860000 -1.70147722 -30.18121193 -11.12664795 45.92204726 -12.12216662 40.85133138 -7.28397439 -44.28582673
4076850000 -1.70434163 -30.10225837 -11.12369238 45.99110487 -12.10500038 40.86313048 -7.25784277 -44.22390926
4081840000 -1.69930753 -30.24878331 -11.11476768 45.94828147 -12.08781073 40.73103663 -7.27449781 -44.39615403
4086830000 -1.70229425 -30.31571532 -11.11942785 45.92983453 -12.09599214 40.72473095 -7.27055070 -44.37505290
4091820000 -1.69703947 -30.31800867 -11.12000531 45.91700651 -12.07801807 40.84527773 -7.27131979 -44.38027787
4096810000 -1.68705052 -30.40376070 -11.09600294 45.85575413 -12.07492915 40.55299207 -7.28291966 -44.35481068
4101800000 -1.68538785 -30.41787631 -11.10687138 45.69075687 -12.06888203 40.68302742 -7.28545835 -44.45794134
4106790000 -1.69454510 -30.37731097 -11.11081739 45.68894161 -12.07000186 40.56295120 -7.27852943 -44.54925602
4111780000 -1.68659445 -30.43946873 -11.09977108 45.62975925 -12.05250804 40.53666356 -7.26742096 -44.54903950
4116770000 -1.70169315 -30.44385793 -11.10804657 45.68453593 -12.06541783 40.54641287 -7.26999891 -44.47548911
4121760000 -1.70212819 -30.39795907 -11.10275056 45.61801160 -12.06483919 40.49918878 -7.27482090 -44.59583169
4126750000 -1.70108578 -30.39391049 -11.09755571 45.55963799 -12.08231005 40.48107011 -7.28311323 -44.63788406
4131740000 -1.69840064 -30.42222173 -11.09492335 45.54449477 -12.03735073 40.46603364 -7.29929116 -44.75281249
4136730000 -1.70609428 -30.44277006 -11.09425464 45.51600166 -12.06231114 40.34911039 -7.29757563 -44.77393042
4141720000 -1.71211038 -30.36099720 -11.09424820 45.58721349 -12.05931433 40.31552330 -7.31028609 -44.70847124
4146710000 -1.71886637 -30.41073359 -11.07816530 45.56574531 -12.02538188 40.45899628 -7.29759418 -44.76745268
4151700000 -1.72489343 -30.39621499 -11.06947347 45.52241087 -12.03653237 40.35009878 -7.28918143 -44.80736570
4156690000 -1.72784962 -30.37251360 -11.06576987 45.56401128 -12.00431501 40.35168739 -7.30198536 -44.92188135
4161680000 -1.74727181 -30.54538577 -11.06571923 45.42758850 -12.00719860 40.28263043 -7.29906462 -44.85147183
4166670000 -1.73464438 -30.53599604 -11.06803990 45.33042383 -12.02243608 40.27651689 -7.29120307 -44.87289476
4171660000 -1.75407528 -30.55341351 -11.06686345 45.37488817 -12.00787957 40.24021558 -7.30143266 -45.08738268
4176650000 -1.73825764 -30.61278418 -11.04081372 45.31675888 -11.99592275 40.30788730 -7.31137078 -45.02362362
4181640000 -1.75263863 -30.63811154 -11.05623330 45.31789409 -11.99863140 40.28342159 -7.31598166 -44.99357675
4186630000 -1.75597778 -30.68642324 -11.06336553 45.24825030 -11.98125706 40.15844209 -7.33013882 -45.10160019
4191620000 -1.75023823 -30.81746689 -11.04830564 45.17705881 -11.98449671 40.20549568 -7.32011674 -45.13024181
4196610000 -1.74071502 -30.80819624 -11.04267593 45.27192861 -11.99026840 40.21548073 -7.30695327 -45.05429728
4201600000 -1.75419512 -30.86411639 -11.04680830 45.13972948 -11.98167175 40.10698353 -7.31523723 -45.17528728
4206590000 -1.74236533 -30.82324324 -11.04181218 45.14951421 -11.96789199 39.95965119 -7.32999271 -45.13059361
4211580000 -1.73513296 -30.86577221 -11.03182848 45.03081063 -11.99492436 40.03846933 -7.32743950 -45.24799358
4216570000 -1.73410288 -30.95539158 -11.03757574 45.01280452 -11.97693543 39.84972575 -7.33232190 -45.19643584
4221560000 -1.73602899 -30.89068169 -11.03870988 44.96850909 -11.95032228 39.97439138 -7.33344939 -45.28186999
4226550000 -1.73287571 -30.88719222 -11.03472275 45.00569707 -11.96603551 39.84070705 -7.33471576 -45.34512672
4231540000 -1.74432861 -30.88535537 -11.03782839 44.80946713 -11.95846902 39.90746465 -7.33695759 -45.36920028
4236530000 -1.75217829 -30.87264180 -11.04730756 44.92913630 -11.96369044 39.90028253 -7.34739010 -45.41713876
4241520000 -1.75034017 -30.81166889 -11.01955925 44.96417680 -11.94108701 39.84247282 -7.33972281 -45.40586131
4246510000 -1.76093772 -30.81886453 -11.01012351 44.94192271 -11.93305790 39.84590278 -7.34154997 -45.38294201
4251500000 -1.76232467 -30.79909569 -11.02955114 44.79885200 -11.95022919 39.88136116 -7.35173989 -45.50684750
4256490000 -1.76898990 -30.84539538 -11.00471391 44.81952445 -11.93715914 39.93047856 -7.35855061 -45.58220851
4261480000 -1.78179229 -30.89996615 -11.01415914 44.83262946 -11.92595120 39.74511412 -7.33955080 -45.48097879
4266470000 -1.78711042 -30.93848621 -10.99682785 44.69044014 -11.92108351 39.76961437 -7.34492759 -45.67058886
4271460000 -1.78749674 -30.90296851 -10.99077851 44.77054040 -11.90212748 39.84303239 -7.35970039 -45.61947532
4276450000 -1.78275602 -30.94826577 -10.98987342 44.68899095 -11.90644192 39.76198392 -7.36409375 -45.62377723
4281440000 -1.79551057 -31.03803333 -10.99159643 44.51026572 -11.90546576 39.72237991 -7.35727430 -45.74030347
4286430000 -1.80064741 -31.18400741 -10.97434455 44.57502445 -11.90642488 39.70462714 -7.35284186 -45.74812297
4291420000 -1.78975852 -31.12219812 -10.98210891 44.61071470 -11.89234637 39.64582296 -7.36121720 -45.69445583
4296410000 -1.78673910 -31.15745553 -10.96807751 44.51545320 -11.89040908 39.60572674 -7.36688028 -45.90712286
4301400000 -1.79075086 -31.20008683 -10.97593081 44.60313816 -11.90127546 39.69760771 -7.37094581 -45.77693565
4306390000 -1.79152794 -31.29644749 -10.96728736 44.51494787 -11.87063360 39.54451799 -7.36511671 -45.94582205
4311380000 -1.78929682 -31.25853344 -10.97547779 44.46232555 -11.87830709 39.55297945 -7.38067684 -45.82608283
4316370000 -1.78731551 -31.30693800 -10.96910849 44.38728404 -11.85078799 39.56637252 -7.37854774 -45.88472336
4321360000 -1.78913413 -31.31885747 -10.97008789 44.27436437 -11.87401935 39.51712745 -7.37794836 -46.01933553
4326350000 -1.77430233 -31.28218080 -10.96520957 44.29149266 -11.85298011 39.34270483 -7.37457106 -45.98015656
4331340000 -1.78591972 -31.30605302 -10.95793456 44.39308704 -11.85748403 39.38255731 -7.38259876 -46.02868524
4336330000 -1.79212520 -31.33907927 -10.95904513 44.28645272 -11.86049709 39.40186891 -7.39341397 -46.10507920
4341320000 -1.78490394 -31.28137410 -10.95055597 44.12802860 -11.85714688 39.40996484 -7.39174582 -46.16612075
4346310000 -1.79508594 -31.22406543 -10.95277012 44.16571363 -11.84676753 39.43946068 -7.40081541 -46.11406029
4351300000 -1.79939389 -31.25627281 -10.94795562 44.26205728 -11.83119611 39.35944555 -7.39878032 -46.25588232
4356290000 -1.80991031 -31.31999400 -10.95345615 44.20853861 -11.83084023 39.27555713 -7.40853577 -46.17934743
4361280000 -1.81168454 -31.32658146 -10.96037422 44.16095033 -11.83900422 39.27607364 -7.41303707 -46.29137533
4366270000 -1.81968784 -31.30273355 -10.92782607 44.11936050 -11.82835066 39.16602300 -7.40460658 -46.30866117
4371260000 -1.82537496 -31.37609695 -10.93846496 44.06577074 -11.84570114 39.27671691 -7.39639387 -46.28223057
4376250000 -1.82906969 -31.38221100 -10.92080241 43.97063491 -11.82417621 39.16753320 -7.40542705 -46.39942215
4381240000 -1.81407246 -31.41125472 -10.91728830 44.03408418 -11.80835686 39.24227113 -7.40704581 -46.30003503
4386230000 -1.83076144 -31.50188536 -10.92113462 44.04501416 -11.80266132 39.29467316 -7.41484229 -46.41585731
4391220000 -1.84540059 -31.52895406 -10.93692929 44.03579524 -11.80987447 39.12046589 -7.41624275 -46.40181477
4396210000 -1.84178449 -31.54696876 -10.91588430 44.03897718 -11.80170336 39.25016486 -7.40385164 -46.46568177
4401200000 -1.84062262 -31.64732290 -10.90891243 43.83859626 -11.78677110 39.16099604 -7.40182072 -46.48021498
4406190000 -1.83246660 -31.68933261 -10.89495098 43.93595525 -11.80091690 39.11803677 -7.41428470 -46.52091684
4411180000 -1.83672047 -31.71456667 -10.91481260 43.88718533 -11.77809520 39.13005786 -7.43695966 -46.55113898
4416170000 -1.82889881 -31.69795038 -10.90410554 43.82547144 -11.78644627 39.08191821 -7.43963722 -46.54699403
4421160000 -1.83073668 -31.75277215 -10.89651447 43.79787460 -11.78489165 39.14210956 -7.42321317 -46.56606096
4426150000 -1.83193699 -31.68482818 -10.90317726 43.79186829 -11.78270917 39.02527426 -7.43975974 -46.65580258
4431140000 -1.82801504 -31.79995995 -10.89251244 43.57354905 -11.76119992 38.92933627 -7.44259376 -46.68752498
4436130000 -1.83509692 -31.78132889 -10.91275265 43.61577869 -11.75197051 38.96747285 -7.44112829 -46.66151457
4441120000 -1.82818639 -31.73625637 -10.88542404 43.66832877 -11.75674863 38.95600533 -7.43693172 -46.74339040
4446110000 -1.83223209 -31.76820674 -10.89030484 43.60191111 -11.76709007 38.85446847 -7.45732504 -46.90096022
4451100000 -1.83405794 -31.75490279 -10.89119517 43.53576222 -11.75623595 38.93828590 -7.45961377 -46.78961008
4456090000 -1.83851596 -31.72438847 -10.89017753 43.63862416 -11.75667357 38.95912405 -7.46328085 -46.85025602
4461080000 -1.84648531 -31.72363641 -10.89458147 43.53371671 -11.74637094 38.87824620 -7.45654439 -46.92216158
4466070000 -1.85105977 -31.74355168 -10.88382740 43.43162850 -11.73745176 38.86191655 -7.44752608 -46.97050979
4471060000 -1.86144944 -31.75043042 -10.86030915 43.44051136 -11.72239201 38.93242383 -7.44600331 -47.00689838
4476050000 -1.86068061 -31.74172533 -10.84983748 43.45309554 -11.71229239 38.80680067 -7.46076891 -46.99046672
4481040000 -1.86798530 -31.79843337 -10.86353734 43.50190724 -11.72090496 38.77998610 -7.45409968 -46.92933818
4486030000 -1.87594867 -31.83934227 -10.86405868 43.45554732 -11.71762518 38.79828694 -7.45839131 -47.13478765
4491020000 -1.87520731 -31.84231567 -10.84981529 43.47280475 -11.72104798 38.84281931 -7.46116188 -47.03575489
4496010000 -1.88533488 -31.96380029 -10.86379672 43.33503175 -11.69973059 38.72566600 -7.46414833 -47.00252106
4501000000 -1.88630192 -31.96248637 -10.83460016 43.31103537 -11.69386350 38.78697550 -7.45198319 -47.07524778
4505990000 -1.87898481 -32.04526216 -10.84350780 43.35755462 -11.69326628 38.69257679 -7.47435707 -47.09847839
4510980000 -1.87918794 -32.08857072 -10.84023259 43.25045432 -11.69314581 38.58195507 -7.47320873 -47.11577127
4515970000 -1.88162121 -32.10937696 -10.84712395 43.16469250 -11.68883182 38.74098536 -7.47728900 -47.09938743
4520960000 -1.88315972 -32.17709471 -10.83538739 43.26361078 -11.68293256 38.51843531 -7.47854424 -47.13408727
4525950000 -1.86665734 -32.12803761 -10.84675170 43.14723353 -11.66061750 38.60832846 -7.49198957 -47.18545380
4530940000 -1.87051005 -32.20795834 -10.82560943 43.06575210 -11.67525328 38.52940807 -7.47897911 -47.33406894
4535930000 -1.86930862 -32.21496196 -10.80544333 42.99685843 -11.66889784 38.56597646 -7.47982874 -47.31717618
4540920000 -1.85842635 -32.14465169 -10.81144702 42.98677008 -11.65730889 38.55870532 -7.49860287 -47.24284044
4545910000 -1.87152627 -32.18390412 -10.84173960 42.99238957 -11.66490513 38.47902728 -7.50747087 -47.38855208
4550900000 -1.87636897 -32.23315663 -10.81826698 42.99328514 -11.65341690 38.42916614 -7.50251640 -47.37060976
4555890000 -1.88549720 -32.18649349 -10.80749978 43.00641185 -11.66166799 38.30875050 -7.50750851 -47.50091906
4560880000 -1.88098580 -32.16760485 -10.80565679 42.88232223 -11.64513059 38.55468152 -7.49680237 -47.53431800
4565870000 -1.89421018 -32.17483328 -10.80475373 42.94383678 -11.65392653 38.33529793 -7.50853119 -47.59083425
4570860000 -1.89651775 -32.18888680 -10.80721654 42.90366065 -11.63707261 38.42827294 -7.49234077 -47.57951762
4575850000 -1.90029873 -32.19518856 -10.80038715 42.76785930 -11.64348288 38.35706293 -7.51045828 -47.65011863
4580840000 -1.90396660 -32.16206501 -10.80073030 42.84535398 -11.64097747 38.31972004 -7.50955302 -47.58597955
4585830000 -1.91286585 -32.23935058 -10.78026962 42.73133488 -11.63335705 38.28486616 -7.49979269 -47.66491202
4590820000 -1.92242162 -32.28954982 -10.78393616 42.78423009 -11.61440292 38.40008261 -7.51231499 -47.74204387
4595810000 -1.93295494 -32.32563079 -10.80562883 42.72117980 -11.62767407 38.28563166 -7.51230248 -47.76290539
4600800000 -1.92724860 -32.38103554 -10.78837426 42.67265011 -11.60709265 38.33148642 -7.51403794 -47.70462518
4605790000 -1.92604079 -32.39740540 -10.78451007 42.69290547 -11.60491980 38.23549089 -7.51196913 -47.70073675
4610780000 -1.92238386 -32.45897399 -10.77660323 42.73733891 -11.61635172 38.25508684 -7.52551055 -47.71854674
4615770000 -1.92920704 -32.54482595 -10.77599738 42.73379506 -11.58636799 38.16623149 -7.50508905 -47.72957964
4620760000 -1.93374568 -32.58757961 -10.76684164 42.62820904 -11.60228322 38.13557109 -7.52167771 -47.78824859
4625750000 -1.92770946 -32.60995309 -10.76927883 42.61364219 -11.58535094 38.15947043 -7.52467402 -47.79004140
4630740000 -1.91549028 -32.62152862 -10.74947323 42.52757803 -11.58516823 38.06403641 -7.51806898 -47.84731041
4635730000 -1.92350545 -32.63460664 -10.75714608 42.45351032 -11.58634242 38.00311596 -7.53197706 -47.81758233
4640720000 -1.91996898 -32.67722474 -10.74543754 42.55772601 -11.55599348 37.97745488 -7.52506791 -47.89727411
4645710000 -1.92132960 -32.73574424 -10.74678168 42.39555096 -11.57965364 37.92888904 -7.55152368 -47.94441823
4650700000 -1.91637814 -32.67799035 -10.74252181 42.37013749 -11.57082421 37.95173142 -7.55895090 -48.04273860
4655690000 -1.92144983 -32.68858885 -10.74940862 42.39871170 -11.57197566 37.99321781 -7.55939692 -47.98235231
4660680000 -1.92957695 -32.68393261 -10.74605002 42.30515541 -11.57585568 37.92052157 -7.56224803 -48.01589191
4665670000 -1.92953746 -32.62368240 -10.73456060 42.37670684 -11.55181060 37.91495019 -7.56226049 -48.11160649
4670660000 -1.93792897 -32.67768294 -10.74315370 42.29322695 -11.56227975 37.88335020 -7.55332189 -48.20286107
4675650000 -1.93183712 -32.67861972 -10.74381440 42.23963867 -11.55042328 37.84403188 -7.56461508 -48.18722422
4680640000 -1.94721737 -32.66991240 -10.74473818 42.25015518 -11.53714878 37.84028161 -7.56189036 -48.35699817
4685630000 -1.95322152 -32.71036570 -10.73210095 42.15691434 -11.53098291 37.82067243 -7.57443912 -48.29435497
4690620000 -1.95639569 -32.72593549 -10.72834880 42.13375290 -11.53023500 37.85390145 -7.56635768 -48.39372477
4695610000 -1.96065936 -32.73737728 -10.72026939 42.16767293 -11.52881194 37.78503152 -7.56466505 -48.29498862
4700600000 -1.96653225 -32.79664193 -10.71423705 42.12663104 -11.52851875 37.79404476 -7.55026286 -48.39822674
4705590000 -1.96946145 -32.84730231 -10.69796992 42.17408035 -11.51124223 37.73140939 -7.56913347 -48.33318655
4710580000 -1.96852243 -32.90989680 -10.70828179 42.05513308 -11.51308541 37.67809815 -7.54341183 -48.34994797
4715570000 -1.97227330 -32.97209932 -10.69282526 42.14885653 -11.50249892 37.67799989 -7.55304817 -48.36409667
4720560000 -1.97140506 -32.96893829 -10.69711423 42.05180947 -11.50117285 37.61296697 -7.57285948 -48.32721879
4725550000 -1.97938444 -33.08238932 -10.69846928 42.01624407 -11.50034995 37.67427616 -7.55884888 -48.39085530
4730540000 -1.96851204 -33.08610518 -10.67736466 41.99230055 -11.49989851 37.55426963 -7.57221579 -48.53344261
4735530000 -1.96736846 -33.12490222 -10.69350542 41.83567313 -11.49299201 37.58844114 -7.57443735 -48.44048339
4740520000 -1.97407033 -33.15214854 -10.69510670 41.90582512 -11.49978486 37.64440516 -7.58065011 -48.36691177
4745510000 -1.96484548 -33.13662128 -10.67504193 41.86418610 -11.48303146 37.49503231 -7.59268237 -48.37543412
4750500000 -1.96531614 -33.18059789 -10.69173557 41.83587536 -11.48478714 37.56903348 -7.61793776 -48.43724119
4755490000 -1.96924779 -33.22975355 -10.69204748 41.78022678 -11.46436848 37.42195504 -7.59928663 -48.53376139
4760480000 -1.97102824 -33.19521805 -10.69182046 41.69223264 -11.48103775 37.44113576 -7.62641399 -48.55401346
4765470000 -1.97801121 -33.13608717 -10.67903988 41.73391719 -11.47179177 37.46322890 -7.60525355 -48.61828409
4770460000 -1.97506117 -33.23401866 -10.67927221 41.60188638 -11.47422812 37.33901851 -7.61448642 -48.78986304
4775450000 -1.98532220 -33.18155121 -10.67450082 41.61907205 -11.46343784 37.48649020 -7.60984080 -48.69831036
4780440000 -1.98319250 -33.16921198 -10.67965250 41.73528183 -11.45330061 37.39169156 -7.61334218 -48.75421243
4785430000 -1.99256575 -33.22863717 -10.66426334 41.63315878 -11.44853170 37.22824298 -7.60754196 -48.91680576
4790420000 -2.00427864 -33.20193852 -10.67626422 41.59796968 -11.44622875 37.39879080 -7.59658765 -48.86365477
4795410000 -2.00312572 -33.17677671 -10.64989532 41.55529384 -11.46221763 37.20378335 -7.60944149 -48.95408862
4800400000 -2.00760906 -33.23744993 -10.66671010 41.56170959 -11.44364492 37.28004483 -7.61174034 -48.89053526
4805390000 -2.02061707 -33.30096311 -10.66855534 41.60268938 -11.43495087 37.35805459 -7.62103868 -48.98478426
4810380000 -2.01766272 -33.34087475 -10.65289224 41.54597196 -11.42730625 37.24162510 -7.61577199 -48.89272258
4815370000 -2.02370350 -33.38551104 -10.63767813 41.45739696 -11.42702652 37.24159877 -7.60534582 -48.86161668
4820360000 -2.02666741 -33.47223373 -10.66138022 41.42278494 -11.42503501 37.25376558 -7.61929956 -48.92436974
4825350000 -2.02686908 -33.49448669 -10.63744593 41.44476180 -11.43442799 37.26402397 -7.59618100 -48.91152140
4830340000 -2.01463037 -33.49834262 -10.63625246 41.44218082 -11.42044153 37.17244835 -7.61290630 -48.94889532
4835330000 -2.02300894 -33.56315244 -10.62273126 41.30225468 -11.40675694 37.13145594 -7.62399488 -49.02302793
4840320000 -2.02153293 -33.61289180 -10.62998289 41.27139711 -11.40951936 37.09192569 -7.62246019 -48.86913839
4845310000 -2.02303449 -33.63694300 -10.63272809 41.29790903 -11.40140149 36.96330557 -7.63703287 -49.05986928
4850300000 -2.02507028 -33.65398371 -10.63107877 41.27508586 -11.40058100 37.12220571 -7.62894201 -49.07432966
4855290000 -2.01583842 -33.69114407 -10.63929054 41.18330961 -11.38779843 37.06290130 -7.64611479 -49.01025050
4860280000 -2.01805341 -33.67266527 -10.60893255 41.09756391 -11.38215463 36.88200827 -7.63630069 -49.17709630
4865270000 -2.01889362 -33.70113667 -10.62268631 41.18457924 -11.40040249 36.88852161 -7.63968134 -49.18475712
4870260000 -2.03265606 -33.73270237 -10.63744843 41.13682562 -11.37762399 36.82338351 -7.64957866 -49.32005555
4875250000 -2.03341402 -33.74534985 -10.61893828 41.05882430 -11.36988024 36.81927127 -7.65007688 -49.23443610
4880240000 -2.02627636 -33.68772890 -10.62226324 41.06117290 -11.38685249 36.93355427 -7.65391800 -49.34627617
4885230000 -2.03103259 -33.71902588 -10.61432114 41.03294695 -11.38378818 36.84878291 -7.66489178 -49.35928309
4890220000 -2.04206871 -33.72442649 -10.60981225 40.99983159 -11.36278418 36.74171698 -7.65463255 -49.46729830
4895210000 -2.05132097 -33.65955319 -10.62262733 40.97922300 -11.37066639 36.85855420 -7.65514917 -49.41872770
4900200000 -2.04772657 -33.77297237 -10.60740308 40.81596265 -11.35960613 36.77607993 -7.64923458 -49.44685074
4905190000 -2.04645743 -33.76234637 -10.60940114 40.86455550 -11.36762680 36.87857174 -7.66895371 -49.49888075
4910180000 -2.06297474 -33.83302618 -10.59524659 40.92943194 -11.35758633 36.70608284 -7.66448987 -49.53087105
4915170000 -2.07071114 -33.85547343 -10.58247902 40.91591635 -11.36487049 36.69884916 -7.64413815 -49.60088260
4920160000 -2.06297822 -33.95358738 -10.60034975 40.87864581 -11.33164551 36.61056165 -7.65807074 -49.51261947
4925150000 -2.07033595 -33.92956839 -10.58186947 40.88904897 -11.35102668 36.67467113 -7.66045306 -49.58230393
4930140000 -2.07192146 -34.02595977 -10.57979700 40.80493855 -11.34163179 36.61621914 -7.65903421 -49.50484849
4935130000 -2.07419649 -34.02898091 -10.59041072 40.72632719 -11.32892318 36.60298300 -7.66900059 -49.68133470
4940120000 -2.07039023 -34.08600714 -10.58303812 40.67510313 -11.32455402 36.60473346 -7.67029120 -49.65354841
4945110000 -2.07361246 -34.12681810 -10.57565187 40.64802830 -11.33035470 36.65977072 -7.66631763 -49.56146351
4950100000 -2.07151341 -34.15868259 -10.57490646 40.68946080 -11.32328603 36.65677214 -7.67638058 -49.68686605
4955090000 -2.06946102 -34.19971563 -10.57186562 40.55943294 -11.33934559 36.51760908 -7.67819108 -49.78879231
4960080000 -2.07098572 -34.25908224 -10.57580904 40.56722489 -11.32206790 36.49341093 -7.68936602 -49.76551391
4965070000 -2.06966365 -34.23238005 -10.55545314 40.55704697 -11.32387738 36.47236359 -7.68984722 -49.76196679
4970060000 -2.07529421 -34.28501380 -10.56301261 40.46856069 -11.31886519 36.49242848 -7.68637478 -49.77519292
4975050000 -2.06731731 -34.22443035 -10.55788806 40.55074093 -11.30966165 36.32528492 -7.69205481 -49.86640426
4980040000 -2.07055474 -34.26227926 -10.55245028 40.46948899 -11.30589831 36.36129916 -7.69680888 -49.92697953
4985030000 -2.07781721 -34.31928377 -10.56277787 40.46180265 -11.30421614 36.42891636 -7.70377014 -49.92370451
4990020000 -2.07919518 -34.27347037 -10.55851118 40.35321496 -11.30782704 36.44724513 -7.70652337 -50.01626793
4995010000 -2.08393644 -34.29848980 -10.54467338 40.40358718 -11.29764144 36.25899714 -7.69812891 -49.95075736
5000000000 -2.09298692 -34.28787597 -10.56765884 40.51088818 -11.28381970 36.25541708 -7.69716977 -49.99304620