! Forward-simulated: Re-embedded (raw/measured) — deemb_preext_cold.s2p
!   source_deembedded_file = deemb_preext_cold.s2p
!   Cpbe_fF = 22.0
!   Cpce_fF = 18.0
!   Cpbc_fF = 5.0
!   Lb_pH = 45.0
!   Lc_pH = 42.0
!   Le_pH = 6.0
!   Rpb_ohm = 0.0
!   Rpc_ohm = 0.0
!   Rpe_ohm = 0.0
# Hz S DB R 50
10000000 0.03291757 -0.15253361 -45.54431575 79.92285962 -53.58362178 89.23151417 0.01061487 -0.41039070
14990000 -0.05776211 -0.37077133 -49.38573000 95.94140582 -44.50413334 87.36775487 -0.02403503 -0.30368220
19980000 -0.01808194 -0.62841040 -42.00114785 83.83556762 -41.72665534 85.51644373 0.00767171 -0.36247986
24970000 -0.02442230 -0.76581216 -40.12749694 81.53392677 -41.30861153 79.19744421 0.00611715 -0.38164855
29960000 -0.01314958 -0.77685601 -39.39540303 88.32092171 -39.04642333 83.39457862 0.01142613 -0.66921264
34950000 -0.02522316 -0.96466426 -37.88900307 77.97463953 -37.81632046 82.35952458 -0.00340416 -0.85536215
39940000 -0.01465004 -0.97185372 -36.77113074 78.86793504 -36.87473212 80.69783067 0.00921401 -0.86077609
44930000 -0.01409208 -1.07663408 -35.64509045 78.04617524 -35.87411548 77.78988211 0.00725471 -1.04906693
49920000 -0.02535889 -1.22362478 -34.83593923 77.71826429 -35.01277629 76.88567761 0.00130863 -1.11148246
54910000 -0.04473233 -1.44147244 -34.30773884 78.38301921 -34.40048783 75.04735862 -0.01862668 -1.04107884
59900000 -0.05689352 -1.25617861 -33.66598977 77.23175687 -33.66961400 75.22343103 0.00607288 -1.51926263
64890000 -0.04728305 -1.60533377 -32.56974856 73.53055754 -33.35869857 73.75247246 -0.03078398 -1.49019790
69880000 -0.05986084 -1.55169220 -32.29416040 76.02432322 -32.61526092 73.18279602 -0.02287282 -1.64770193
74870000 -0.07567987 -1.86326819 -31.93461377 73.08834290 -31.88870892 73.58844414 -0.02431866 -1.59326966
79860000 -0.07700792 -1.85807428 -31.87718116 72.17993373 -31.65499039 72.79396282 -0.03902621 -1.66933020
84850000 -0.11108951 -1.98943251 -31.19896259 71.79527071 -30.87968876 71.80909956 -0.04800293 -1.81870310
89840000 -0.11215644 -2.04582563 -30.56398003 70.26869677 -30.91253240 70.42253430 -0.05741527 -1.82211543
94830000 -0.12237108 -2.17474188 -30.34320577 70.65573731 -30.30561642 69.75006838 -0.06521102 -1.96586718
99820000 -0.13859839 -2.17283915 -29.92432449 70.35048304 -29.92470541 70.59591105 -0.06478817 -2.12080224
104810000 -0.13756360 -2.32263076 -29.58797686 68.70711701 -29.71674173 69.66981201 -0.07988315 -2.06918119
109800000 -0.16496235 -2.32933594 -29.18856997 68.59280560 -29.29250406 68.37943713 -0.08354819 -2.17959321
114790000 -0.15657638 -2.40986939 -29.13848403 67.75107041 -29.12368060 67.43934427 -0.07917318 -2.33286469
119780000 -0.17216379 -2.36886148 -28.70821724 67.79391159 -28.79488213 67.17944396 -0.08767118 -2.32830397
124770000 -0.16170880 -2.41621588 -28.52055056 67.01921196 -28.54998551 67.09065851 -0.09424569 -2.41674160
129760000 -0.16429393 -2.55164749 -28.27178578 66.01669656 -28.42361134 67.32419853 -0.08721313 -2.49002539
134750000 -0.17052213 -2.53114337 -28.15493676 66.82018835 -28.14968125 66.45992791 -0.09790684 -2.60971426
139740000 -0.16461225 -2.57919017 -27.77100498 66.19313600 -27.94490919 66.14476824 -0.09279098 -2.64745076
144730000 -0.17874762 -2.64278626 -27.71934081 65.87829425 -27.62968336 65.86249001 -0.10204032 -2.65710905
149720000 -0.17854712 -2.72332652 -27.36711095 65.25871066 -27.43283710 65.29067231 -0.08749046 -2.75284307
154710000 -0.17350362 -2.70673494 -27.22438656 65.01392139 -27.27001497 64.89369797 -0.09852595 -2.85374305
159700000 -0.17521965 -2.75328411 -27.04504260 65.02556422 -27.07711260 64.99980194 -0.11004291 -2.87525166
164690000 -0.18799809 -2.78848119 -26.92406613 64.39619678 -26.85047710 64.59930800 -0.10904360 -2.97778443
169680000 -0.19484527 -2.85336262 -26.63073870 64.10206011 -26.70419219 63.82875925 -0.11185872 -3.02778796
174670000 -0.19892080 -2.93056956 -26.56913676 63.75887871 -26.55650395 63.99558580 -0.12421324 -3.13689177
179660000 -0.20262726 -3.05204135 -26.28208295 63.32900042 -26.38673011 64.31432068 -0.12518272 -3.17814060
184650000 -0.20571633 -3.11349514 -26.21489162 62.94604947 -26.30062646 62.86065881 -0.13548765 -3.17406873
189640000 -0.22750145 -3.12115861 -26.05358499 63.07922022 -26.06278123 62.84209631 -0.14221963 -3.40820762
194630000 -0.23699984 -3.17790461 -25.98926350 62.96673105 -25.91829090 64.09031234 -0.16263321 -3.39901676
199620000 -0.25458893 -3.21561431 -25.66734635 63.39543661 -25.75487609 64.10680954 -0.15752382 -3.55796709
204610000 -0.27693132 -3.01223566 -25.78473102 62.46635625 -25.67132332 62.42496058 -0.18350189 -3.55491139
209600000 -0.23908768 -3.25520862 -25.56474682 62.95750085 -25.45984096 61.96879559 -0.19401052 -3.45978500
214590000 -0.25658673 -3.53673424 -25.36144548 62.08632943 -25.40017687 61.63744160 -0.19014761 -3.17682590
219580000 -0.26540150 -3.39858288 -25.19315795 62.41466918 -25.30705379 61.80346428 -0.12102775 -3.42778388
224570000 -0.28389319 -3.36610728 -25.08719844 61.02731546 -25.26023977 61.98011157 -0.14404411 -3.87344618
229560000 -0.28392438 -3.28332405 -25.02127735 62.07749970 -25.08693452 62.17209645 -0.16016380 -3.85241959
234550000 -0.28121213 -3.35403620 -24.97625319 62.06481436 -25.03316520 61.64887668 -0.16869125 -3.90548710
239540000 -0.27646758 -3.35369053 -24.83623757 62.19060617 -24.94840415 62.20648226 -0.17638080 -4.01922401
244530000 -0.26631211 -3.43718203 -24.73711153 61.80790001 -24.72302787 61.56636518 -0.17917480 -4.00763021
249520000 -0.23672340 -3.45466571 -24.67001261 61.97344485 -24.64850254 61.65966348 -0.16846019 -4.04388327
254510000 -0.26434142 -3.30208229 -24.46347386 61.97001404 -24.50412310 62.59703827 -0.17141085 -4.05322015
259500000 -0.25837372 -3.36889675 -24.31856796 62.53416231 -24.34600561 61.34611964 -0.18969078 -4.22149643
264490000 -0.25143623 -3.55558807 -24.24461654 60.00052082 -24.38852094 61.57829091 -0.18640883 -4.27854723
269480000 -0.24037973 -3.65001048 -24.20130858 61.34196520 -24.23892131 61.45105769 -0.18364292 -4.34027119
274470000 -0.24962490 -3.67864879 -24.09044995 60.80438539 -24.11951862 61.28624148 -0.18471252 -4.32428268
279460000 -0.26307284 -3.72845129 -24.01165488 61.98803744 -23.98962771 61.46297596 -0.18994693 -4.42263385
284450000 -0.25155444 -3.68067224 -23.93254263 61.32283934 -23.94780394 60.79400347 -0.19461222 -4.47673569
289440000 -0.25045470 -3.93053350 -23.77892357 61.40938831 -23.75198912 61.28927568 -0.18752190 -4.58909533
294430000 -0.27189205 -3.98044114 -23.75700176 61.01797297 -23.75388347 61.16379542 -0.20253694 -4.59338960
299420000 -0.28124336 -3.94841145 -23.54755355 61.04457524 -23.62839991 60.69381338 -0.21945311 -4.72858562
304410000 -0.30363259 -4.04699330 -23.49323138 60.97744484 -23.55897687 61.72848173 -0.22694233 -4.76163663
309400000 -0.30631410 -4.23079338 -23.41010002 60.97018233 -23.50185063 60.48885029 -0.23789717 -4.78802178
314390000 -0.33173539 -4.29195542 -23.43778645 60.74929156 -23.31837910 60.37971224 -0.23852889 -4.84608525
319380000 -0.33478299 -4.21286133 -23.30479010 60.89416604 -23.38182819 60.64050814 -0.22876542 -4.81358460
324370000 -0.33280692 -4.13494566 -23.22447266 61.40954189 -23.16377726 61.12726476 -0.21854898 -4.85159025
329360000 -0.34339855 -4.15899663 -23.18219526 60.54957652 -23.14096637 60.57692985 -0.20843516 -4.95883100
334350000 -0.34206291 -4.18279995 -23.03804327 60.50121877 -23.09547611 61.03554874 -0.22724563 -5.08411207
339340000 -0.31228313 -4.12910172 -22.92223686 60.11708991 -23.09163856 60.93490407 -0.21944615 -5.19956075
344330000 -0.31607831 -4.13653230 -22.88859678 60.89825411 -22.96207282 60.86391155 -0.24231776 -5.26449173
349320000 -0.29867636 -4.13864772 -22.81961409 61.07231161 -22.92170279 61.08068971 -0.23118858 -5.26325503
354310000 -0.30714907 -4.14638224 -22.75744951 61.66377909 -22.76714076 60.73515734 -0.20923853 -5.32779750
359300000 -0.28917462 -4.08274768 -22.75486769 61.43160126 -22.69536072 61.46709276 -0.23115032 -5.40334551
364290000 -0.26903015 -4.22602384 -22.50198770 61.18042328 -22.68387820 60.86258175 -0.23020032 -5.54199369
369280000 -0.27502873 -4.26634628 -22.48089513 61.11211017 -22.55916997 61.13595674 -0.22413526 -5.51843880
374270000 -0.25921998 -4.32609318 -22.38896722 60.94929985 -22.46614846 61.31518005 -0.23562913 -5.57339849
379260000 -0.25501679 -4.36494323 -22.37024599 61.36800556 -22.35234534 60.73170085 -0.24937427 -5.62653149
384250000 -0.26812135 -4.47331754 -22.26844322 60.71824444 -22.29314904 61.08450645 -0.23506878 -5.70282335
389240000 -0.27313031 -4.61129036 -22.18931337 61.03831381 -22.22197883 60.93250948 -0.25141786 -5.83507170
394230000 -0.26700933 -4.60723044 -22.08292831 61.31001008 -22.16094518 61.41138814 -0.25299504 -5.81236624
399220000 -0.27659819 -4.84070525 -22.08519489 60.93598735 -22.06289420 60.83474963 -0.25191596 -5.85999818
404210000 -0.28116587 -4.84394275 -21.95366882 60.76590276 -21.95477747 60.87046358 -0.25295744 -5.94069751
409200000 -0.30685492 -4.94130114 -21.90463098 61.15696567 -21.91450478 60.72656973 -0.26037133 -6.03000004
414190000 -0.30380484 -5.14669588 -21.85469504 60.69715169 -21.85930449 60.90916743 -0.25996432 -6.09267919
419180000 -0.31509072 -5.23889220 -21.77538414 60.60586443 -21.75805808 60.70255813 -0.27199707 -6.13634665
424170000 -0.32767620 -5.35100749 -21.68057047 60.66010334 -21.72749125 60.65224006 -0.27179305 -6.18573134
429160000 -0.34718338 -5.26037510 -21.58707902 60.60093329 -21.66094438 60.53920747 -0.27542687 -6.34648001
434150000 -0.36295970 -5.23743884 -21.65264594 60.39111833 -21.60787922 60.71137095 -0.28471708 -6.32988651
439140000 -0.36840707 -5.20835753 -21.52760438 60.65875612 -21.56483488 61.02377371 -0.27421359 -6.40318132
444130000 -0.36532329 -5.05725167 -21.53305080 60.23017530 -21.53240890 60.67765375 -0.28153663 -6.45030891
449120000 -0.35631563 -5.01742424 -21.39159007 61.13890244 -21.41274232 60.84155087 -0.27279070 -6.49305894
454110000 -0.33601414 -4.88723413 -21.37257779 61.16022435 -21.38541377 61.11026177 -0.27461992 -6.58036127
459100000 -0.30960630 -4.82387952 -21.31454082 61.16921766 -21.30685182 61.41249782 -0.26969289 -6.59440913
464090000 -0.29006644 -4.89927178 -21.23103611 61.26004895 -21.24509940 61.46616621 -0.27639458 -6.67699588
469080000 -0.28218438 -5.01565005 -21.12451145 61.21875356 -21.12821826 61.16780774 -0.26828359 -6.72224063
474070000 -0.25896914 -5.02283106 -21.06299862 61.27568987 -21.04790122 61.50095958 -0.26715977 -6.75978777
479060000 -0.25999093 -5.16425385 -20.95352011 61.44314661 -20.98595919 61.45646887 -0.26414783 -6.85237723
484050000 -0.25368855 -5.24609561 -20.87698490 61.28204729 -20.94751307 61.31237443 -0.26996997 -6.88291875
489040000 -0.25784752 -5.32665674 -20.80220586 61.19178651 -20.89053341 61.19450267 -0.27867562 -6.97929601
494030000 -0.24662683 -5.48217347 -20.74692173 61.23637693 -20.78936848 61.12475443 -0.28358006 -7.04615710
499020000 -0.26456906 -5.53499442 -20.73306012 61.10731206 -20.72998140 61.19321023 -0.28645430 -7.10925887
504010000 -0.26532823 -5.58664823 -20.60289172 61.37980038 -20.65753085 61.31095138 -0.29619452 -7.14191885
509000000 -0.28588764 -5.75325365 -20.58549428 61.01244816 -20.57453428 61.00511639 -0.29529670 -7.21063874
513990000 -0.28232513 -5.85534020 -20.55190264 61.14217244 -20.51687653 61.02967598 -0.30663906 -7.22372787
518980000 -0.29775705 -5.89674980 -20.48476175 60.80517232 -20.46612929 61.53524588 -0.30858522 -7.36965762
523970000 -0.30796632 -6.03611168 -20.41341323 60.77847814 -20.35542536 61.22994198 -0.30995366 -7.39326451
528960000 -0.33029522 -6.18297977 -20.39147830 61.15293340 -20.38760962 61.05322744 -0.30751293 -7.46883086
533950000 -0.35411793 -6.27039352 -20.34584398 60.35582144 -20.33928624 60.81567313 -0.32180321 -7.50571985
538940000 -0.36668671 -6.35934326 -20.25916799 61.04013980 -20.28340711 61.05020533 -0.31317017 -7.56846668
543930000 -0.40042798 -6.14447236 -20.24219145 61.11330383 -20.27132289 61.00883590 -0.31997131 -7.66618217
548920000 -0.41347597 -6.05598814 -20.17676546 60.92222663 -20.25329227 61.04851798 -0.31697042 -7.67753765
553910000 -0.39731952 -5.97212698 -20.14447037 60.93683364 -20.18694896 61.21868826 -0.32492973 -7.77129983
558900000 -0.38375069 -5.77166530 -20.13947546 61.21500865 -20.07739001 61.05254394 -0.31954582 -7.75961176
563890000 -0.36273930 -5.77247143 -20.04977178 60.97817489 -20.05891110 61.09435196 -0.31619386 -7.86465294
568880000 -0.31987825 -5.66689826 -19.98150000 61.53130352 -19.97589928 61.78546387 -0.32331189 -7.91375490
573870000 -0.27941095 -5.74245315 -19.89119440 61.49816665 -19.90529803 61.63993947 -0.32452845 -7.95532596
578860000 -0.27882839 -5.91955554 -19.82064015 61.34820861 -19.79653029 61.59923280 -0.32276236 -8.03689587
583850000 -0.25253780 -5.95968824 -19.79896907 61.10120146 -19.77052714 61.41180049 -0.33433971 -8.10378913
588840000 -0.25204504 -6.16122555 -19.65256005 61.46770603 -19.68988963 61.33957550 -0.32739174 -8.06516190
593830000 -0.24367516 -6.06397795 -19.60395952 61.43316327 -19.61210200 61.32853025 -0.32803421 -8.15880410
598820000 -0.25614991 -6.22127850 -19.58688591 61.64577590 -19.60086984 60.97334054 -0.33201995 -8.24206529
603810000 -0.25346969 -6.27464520 -19.47663433 61.37566812 -19.52609963 61.11897974 -0.34406847 -8.30715086
608800000 -0.26995783 -6.53944678 -19.52304309 61.31577926 -19.48264989 61.08721280 -0.33732974 -8.29275225
613790000 -0.26180063 -6.62959204 -19.38556966 61.05025747 -19.44950511 60.90829584 -0.34762297 -8.33357052
618780000 -0.27276854 -6.73175716 -19.36945423 61.22895908 -19.38698417 60.86587638 -0.35220313 -8.48052307
623770000 -0.29888977 -6.90411825 -19.31571139 61.24657496 -19.36183350 60.87440283 -0.35549507 -8.56862387
628760000 -0.30984887 -6.97937091 -19.24895210 60.61175399 -19.30056146 60.94718265 -0.36663585 -8.57982180
633750000 -0.31316267 -7.12740765 -19.20924496 61.03003885 -19.22352118 61.01614956 -0.35792571 -8.63679534
638740000 -0.34859436 -7.14603418 -19.18325826 60.81982455 -19.17749111 60.83952109 -0.35605536 -8.73019292
643730000 -0.35356197 -7.24824728 -19.16546948 60.90790117 -19.14101727 60.94467199 -0.36220047 -8.78022447
648720000 -0.37379613 -7.26176730 -19.13796615 60.81403801 -19.11793576 60.70290422 -0.35233031 -8.81675604
653710000 -0.41031892 -7.28845507 -19.05433192 60.89495699 -19.10348909 60.66110074 -0.37595665 -8.92246112
658700000 -0.42875977 -7.03460514 -19.04854060 60.90762738 -19.03066184 61.04834833 -0.36494453 -8.99599114
663690000 -0.42089707 -6.88483654 -18.99411604 61.00088716 -19.01361022 60.95645029 -0.37456694 -8.98466704
668680000 -0.39759009 -6.72608849 -18.93825819 60.85059790 -18.95282364 61.22094140 -0.36683256 -9.09587498
673670000 -0.37908214 -6.62747758 -18.88194469 61.12130550 -18.90129860 61.24957611 -0.36554247 -9.16475488
678660000 -0.35673985 -6.56370769 -18.79531597 61.29360810 -18.78781603 61.06254074 -0.36212515 -9.24898333
683650000 -0.32096728 -6.58732138 -18.73569328 61.12974556 -18.74979399 61.29920151 -0.37672863 -9.38329064
688640000 -0.30932010 -6.66410805 -18.70328785 61.25120765 -18.69784028 61.35033437 -0.37520884 -9.37822131
693630000 -0.28681115 -6.81360990 -18.61375405 61.03499867 -18.63196231 61.37156667 -0.37593892 -9.33644527
698620000 -0.28297166 -6.81116272 -18.55181008 61.19528330 -18.57744168 61.22233105 -0.37213238 -9.39083044
703610000 -0.27380336 -6.97254138 -18.55021008 60.93307301 -18.57157560 60.70069511 -0.37913446 -9.50572322
708600000 -0.27038617 -7.09568609 -18.47720591 61.00660682 -18.47780078 61.07523053 -0.39089506 -9.56369223
713590000 -0.27592214 -7.25122758 -18.41905606 60.91247306 -18.41175119 61.00222904 -0.39038226 -9.60773385
718580000 -0.27359030 -7.46319338 -18.34654642 60.58012092 -18.41920279 60.92082443 -0.40588973 -9.71965399
723570000 -0.29031104 -7.49066220 -18.35683435 60.58706799 -18.35515678 60.77722212 -0.40171316 -9.74845967
728560000 -0.29293608 -7.68135170 -18.31222502 60.95056404 -18.31811994 60.80651488 -0.40567064 -9.79357572
733550000 -0.30774957 -7.83215754 -18.27299418 60.60687089 -18.27431547 60.61255752 -0.41343660 -9.87029808
738540000 -0.32825469 -7.88138629 -18.23275218 60.61850549 -18.23818971 60.63509774 -0.42303033 -9.88839013
743530000 -0.34796745 -8.02567071 -18.18682576 60.54102277 -18.21619242 60.33225555 -0.42299274 -9.98111831
748520000 -0.36161529 -8.10871999 -18.11948205 60.68499127 -18.17697859 60.37854246 -0.43321665 -10.02485471
753510000 -0.37640170 -8.24923573 -18.11787357 60.52390592 -18.13600483 60.69011079 -0.42413127 -10.11317724
758500000 -0.41079004 -8.22072943 -18.09611229 60.55672164 -18.08775618 60.45273200 -0.42757394 -10.20493562
763490000 -0.44308589 -8.16697874 -18.05479517 60.56938975 -18.06916946 60.68800478 -0.41631142 -10.15421525
768480000 -0.46776407 -8.15860000 -18.04121471 60.58867805 -18.05749514 60.65926650 -0.42193479 -10.32169513
773470000 -0.44405311 -7.88795752 -17.97495768 60.73902798 -17.99815090 60.84632802 -0.41970674 -10.27957983
778460000 -0.43394465 -7.66185828 -17.92727812 60.74154762 -17.93731100 60.90078061 -0.41716737 -10.37363515
783450000 -0.40792068 -7.56603198 -17.83271674 60.82099723 -17.86938685 60.97203861 -0.41632684 -10.44443323
788440000 -0.38685236 -7.58485870 -17.80537988 61.06510446 -17.80977538 60.72904593 -0.40793526 -10.45918950
793430000 -0.35764345 -7.64660492 -17.74746619 60.74206097 -17.74069538 60.87370970 -0.40825130 -10.51324849
798420000 -0.33762971 -7.74351752 -17.71027860 60.89219226 -17.73076165 60.80214481 -0.41428187 -10.57035337
803410000 -0.32881616 -7.84675738 -17.69154962 60.71499214 -17.66948059 60.81504831 -0.41928285 -10.67964998
808400000 -0.32185267 -7.93124066 -17.60986323 60.46133284 -17.61994426 60.50007920 -0.42338302 -10.74018616
813390000 -0.33260529 -8.06711978 -17.58491378 60.55513566 -17.56326635 60.41160168 -0.43087090 -10.79229924
818380000 -0.32525944 -8.11004183 -17.54928695 60.44971931 -17.53084753 60.34757435 -0.43270039 -10.89694148
823370000 -0.32329373 -8.25394536 -17.50924970 60.24408817 -17.49729824 60.36292200 -0.45461260 -10.92730448
828360000 -0.33344709 -8.38498767 -17.44097372 60.21657731 -17.46149313 60.40839183 -0.45475888 -10.96427235
833350000 -0.35672725 -8.50850565 -17.44534495 60.20078848 -17.42653394 60.29705568 -0.46346488 -10.99470138
838340000 -0.36038717 -8.63349903 -17.37144954 60.13313470 -17.39143705 60.25217347 -0.46527632 -11.05114817
843330000 -0.37419312 -8.73911719 -17.36202118 60.23366955 -17.35224827 60.18606336 -0.47115009 -11.09021662
848320000 -0.38369579 -8.85428154 -17.30513580 60.19153019 -17.32351754 60.08748625 -0.47638516 -11.19779597
853310000 -0.39728305 -8.85929611 -17.31782708 60.17554832 -17.28847210 60.06671058 -0.47456268 -11.24033918
858300000 -0.40059583 -9.08986298 -17.24818114 60.05059227 -17.26875259 60.11473844 -0.48074841 -11.31331468
863290000 -0.42830127 -9.17180376 -17.23004191 59.86719728 -17.22123339 60.02658858 -0.47713956 -11.34064660
868280000 -0.45073057 -9.19896321 -17.20984270 59.79155773 -17.18478694 59.98646619 -0.47760005 -11.40212235
873270000 -0.47696188 -9.06122685 -17.12268549 59.98362947 -17.19871580 60.02976633 -0.47659341 -11.52783590
878260000 -0.48840629 -9.02921460 -17.11383295 60.01993276 -17.12810910 59.99622377 -0.48350911 -11.57284642
883250000 -0.50085944 -8.84534861 -17.09424078 60.17826851 -17.10150236 60.00096279 -0.47711798 -11.58470070
888240000 -0.48931096 -8.64819192 -17.06176164 60.20714421 -17.08217542 60.34160612 -0.48411722 -11.63071528
893230000 -0.44852428 -8.55939433 -16.98361492 60.34181036 -16.97844455 60.36358657 -0.48139726 -11.70402233
898220000 -0.44372638 -8.46451610 -16.96569719 60.24837735 -16.97761221 60.29316391 -0.48532019 -11.69905253
903210000 -0.40326038 -8.53231165 -16.89289669 60.21530829 -16.92120435 60.20932733 -0.48438898 -11.74159763
908200000 -0.39454375 -8.66013539 -16.83535335 60.13602496 -16.83539153 60.12194597 -0.48766893 -11.83135961
913190000 -0.37148657 -8.75503763 -16.82045963 60.07518871 -16.80201853 60.01189625 -0.48511456 -11.83984403
918180000 -0.37131089 -8.88795062 -16.73214804 59.72583744 -16.73762738 59.88389929 -0.48951072 -11.90724773
923170000 -0.37062606 -8.93966923 -16.71426790 59.89769741 -16.73416531 59.91525938 -0.49993917 -11.90970384
928160000 -0.39525969 -9.04227478 -16.70662032 59.81452929 -16.71259037 59.79421595 -0.50757664 -12.02705507
933150000 -0.39136756 -9.18242328 -16.65719429 59.66016032 -16.66946161 59.68852403 -0.50723408 -12.14452356
938140000 -0.40253182 -9.26451034 -16.64535085 59.59088802 -16.64001972 59.57816510 -0.51807787 -12.17303230
943130000 -0.42555858 -9.35687733 -16.57611330 59.62125037 -16.60536589 59.76518196 -0.51530581 -12.24829734
948120000 -0.43502338 -9.44382339 -16.57479149 59.59671680 -16.59029912 59.56910630 -0.52817845 -12.30439155
953110000 -0.44732634 -9.61875535 -16.53882380 59.37928482 -16.54222034 59.57192889 -0.52777205 -12.41307498
958100000 -0.46058538 -9.68875335 -16.50625912 59.37660741 -16.55582375 59.45774321 -0.53062724 -12.42151302
963090000 -0.45859844 -9.83530466 -16.48524812 59.46294152 -16.48046997 59.61574641 -0.52920422 -12.45274495
968080000 -0.47114770 -9.80164616 -16.45222757 59.29858262 -16.45608555 59.49474513 -0.53493865 -12.52249878
973070000 -0.50450513 -9.90414914 -16.44637833 59.43253553 -16.43241293 59.49010141 -0.53754411 -12.63357987
978060000 -0.52037126 -9.99535459 -16.42744426 59.39685964 -16.41012474 59.29735291 -0.53222114 -12.63243911
983050000 -0.53744581 -9.98089747 -16.38994887 59.39053015 -16.37866957 59.25034423 -0.53792799 -12.75319502
988040000 -0.55162657 -9.90805339 -16.35034093 59.45236775 -16.36354745 59.46602301 -0.52845420 -12.86879542
993030000 -0.56089824 -9.71234168 -16.30489074 59.57507794 -16.33684410 59.41918091 -0.53723122 -12.84208457
998020000 -0.55456640 -9.54385938 -16.29427129 59.57398020 -16.28696779 59.44428551 -0.53347813 -12.93656678
1003010000 -0.52582286 -9.44096098 -16.20453750 59.64105035 -16.21161316 59.57132096 -0.53931663 -12.97622265
1008000000 -0.50499782 -9.34808922 -16.21388360 59.67362654 -16.18536696 59.63464873 -0.54671831 -12.98624752
1012990000 -0.49027142 -9.40940968 -16.14499087 59.51681006 -16.13123382 59.61109690 -0.53925048 -13.04609251
1017980000 -0.46736987 -9.51203757 -16.05755836 59.27557419 -16.09604396 59.40031033 -0.54695417 -13.14811266
1022970000 -0.46747039 -9.60004631 -16.05656213 59.17900933 -16.04317966 59.30782934 -0.54757893 -13.13070312
1027960000 -0.45320343 -9.63434242 -15.98637694 59.22147673 -16.00063687 59.04304656 -0.54898529 -13.23524592
1032950000 -0.46003317 -9.75327536 -15.98115234 59.43849707 -15.99591225 59.33637727 -0.56802022 -13.25324989
1037940000 -0.47754333 -9.88716798 -15.96633711 59.12833892 -15.96786215 59.17821004 -0.56865175 -13.30681433
1042930000 -0.49207151 -10.00623599 -15.96387318 58.93324074 -15.94403508 59.05202752 -0.57386311 -13.35373044
1047920000 -0.50599522 -10.09972289 -15.92769084 58.85339538 -15.89343022 58.84083715 -0.57683092 -13.41680020
1052910000 -0.51017312 -10.27679405 -15.85319703 58.78212895 -15.88009937 58.76848661 -0.58201328 -13.44598959
1057900000 -0.52493358 -10.27061188 -15.86487087 58.88447647 -15.86755212 58.88926079 -0.59045682 -13.52424599
1062890000 -0.52887323 -10.43909455 -15.84636072 58.83386932 -15.87476405 58.78249459 -0.59088003 -13.62588695
1067880000 -0.54713985 -10.42779780 -15.81263964 58.84399877 -15.83758447 58.84640386 -0.59944565 -13.67303683
1072870000 -0.54889400 -10.62372243 -15.78752752 58.62497663 -15.77915735 58.67966889 -0.60099023 -13.69099354
1077860000 -0.56272832 -10.68648801 -15.75882023 58.72512037 -15.76808106 58.87567468 -0.59827984 -13.73903341
1082850000 -0.57491918 -10.75308818 -15.75075268 58.55028923 -15.75824696 58.81012639 -0.60203343 -13.82031143
1087840000 -0.58631377 -10.76648838 -15.71203712 58.70146233 -15.69807265 58.81936150 -0.59161701 -13.82627457
1092830000 -0.60606079 -10.80126982 -15.68694098 58.78846570 -15.67524086 58.73685497 -0.59006054 -13.96012564
1097820000 -0.61413114 -10.71702241 -15.67156229 58.80289864 -15.68003400 58.73497013 -0.59140345 -13.99585190
1102810000 -0.62910992 -10.63251405 -15.62635111 58.55954595 -15.62505183 58.83232795 -0.59417907 -14.08960269
1107800000 -0.61903491 -10.48111903 -15.55803336 58.79726447 -15.60325008 58.71918499 -0.59312302 -14.11182490
1112790000 -0.60169739 -10.41623695 -15.53869194 58.64802431 -15.52254738 58.83308043 -0.59831814 -14.13321012
1117780000 -0.59329821 -10.32922435 -15.51712811 58.72956618 -15.49126304 58.67992012 -0.60219214 -14.22030395
1122770000 -0.57484117 -10.33423627 -15.44709264 58.63085722 -15.45667125 58.63255086 -0.59645174 -14.30980201
1127760000 -0.56878016 -10.41676262 -15.43490609 58.45578041 -15.44505281 58.48790275 -0.60891503 -14.27397482
1132750000 -0.56984063 -10.44907545 -15.38582205 58.40370013 -15.40130117 58.40237985 -0.61574940 -14.34542941
1137740000 -0.57270716 -10.53110508 -15.38430668 58.43397413 -15.37846744 58.40701752 -0.62434436 -14.39895429
1142730000 -0.57335241 -10.62988555 -15.35873109 58.17553034 -15.33584372 58.20088022 -0.62692099 -14.48111157
1147720000 -0.57952635 -10.70471113 -15.31645339 58.25800532 -15.32055724 58.25764969 -0.62951406 -14.52359518
1152710000 -0.58601355 -10.74315320 -15.29158331 58.22846773 -15.29819993 58.23021841 -0.63981781 -14.51531231
1157700000 -0.59297276 -10.87142893 -15.27555721 58.13137365 -15.26080243 58.07699827 -0.64623371 -14.64407228
1162690000 -0.60969144 -10.97229868 -15.23509121 58.04199356 -15.25256382 58.22242646 -0.65152141 -14.72739585
1167680000 -0.61738978 -11.02568232 -15.21957805 58.10984529 -15.22539678 58.17352529 -0.65431557 -14.74747036
1172670000 -0.62808650 -11.11097017 -15.22013614 58.04418358 -15.21292733 58.11611232 -0.65610545 -14.82183307
1177660000 -0.64305751 -11.17716409 -15.18842664 58.03432734 -15.15840477 58.01163725 -0.65511228 -14.83886021
1182650000 -0.64278141 -11.28809794 -15.15740365 57.86153593 -15.14623284 58.07000642 -0.66063687 -14.98713460
1187640000 -0.65218091 -11.30507774 -15.12204443 57.97570894 -15.13186456 57.95307185 -0.66341280 -14.98071456
1192630000 -0.64840415 -11.40664069 -15.06412245 57.80893176 -15.09866021 57.95510487 -0.67166456 -15.07045211
1197620000 -0.66143903 -11.42873986 -15.07944240 57.90234423 -15.06042711 57.84141095 -0.66556175 -15.13444643
1202610000 -0.66767888 -11.41022606 -15.04879074 57.90747928 -15.04826472 57.98811520 -0.66826546 -15.15671251
1207600000 -0.68776909 -11.43568217 -15.01484133 58.00177611 -15.03730694 57.76464865 -0.67307381 -15.23289576
1212590000 -0.68261217 -11.39544569 -15.01143071 58.12393536 -14.99055804 57.94808042 -0.67050322 -15.26078986
1217580000 -0.68518335 -11.32499393 -14.95366042 57.92997522 -14.95677530 58.03001535 -0.68185505 -15.30387604
1222570000 -0.68986873 -11.24653918 -14.93701304 57.86579842 -14.90296607 57.94966320 -0.67631792 -15.36632565
1227560000 -0.68442533 -11.15526612 -14.88343760 57.82899387 -14.88139382 57.86714977 -0.67594977 -15.37598995
1232550000 -0.66289182 -11.19646090 -14.84870410 57.85664931 -14.85301264 57.91819108 -0.68363579 -15.42308388
1237540000 -0.65852907 -11.15933168 -14.83233138 57.80849831 -14.83798148 57.77911600 -0.67788677 -15.41387814
1242530000 -0.66223661 -11.29843627 -14.79946579 57.72500586 -14.81924306 57.78804960 -0.69740252 -15.51895652
1247520000 -0.66826902 -11.27678028 -14.77988825 57.64782243 -14.77292178 57.56716726 -0.68478362 -15.55738027
1252510000 -0.66987862 -11.37042025 -14.74728969 57.54752345 -14.72742693 57.49800657 -0.69356378 -15.59984234
1257500000 -0.67929457 -11.42565062 -14.72943759 57.44520395 -14.73892968 57.44191877 -0.70206417 -15.67405365
1262490000 -0.68754222 -11.52998139 -14.71825211 57.38974542 -14.72682886 57.36133551 -0.70968604 -15.74064977
1267480000 -0.70046139 -11.58157016 -14.69828827 57.50392546 -14.68895228 57.48734181 -0.72098982 -15.75517126
1272470000 -0.71250272 -11.68536587 -14.65268510 57.38205019 -14.67296287 57.36685269 -0.71651869 -15.88533872
1277460000 -0.71448318 -11.75730801 -14.62596827 57.27557613 -14.62365731 57.33465480 -0.71865364 -15.89049114
1282450000 -0.72554409 -11.80675607 -14.61755578 57.26352716 -14.60915278 57.30364976 -0.72851156 -16.05702747
1287440000 -0.72978687 -11.84765361 -14.60542628 57.41256335 -14.59903179 57.29397359 -0.73093391 -16.11877809
1292430000 -0.73011092 -11.99552920 -14.57135436 57.23515374 -14.57614860 57.11279103 -0.73029951 -16.14223894
1297420000 -0.73655627 -11.94714477 -14.55728903 57.36406751 -14.53698571 57.38577519 -0.72427080 -16.23537364
1302410000 -0.74081482 -12.00727202 -14.52280317 57.37354862 -14.51233316 57.33046688 -0.72878839 -16.22294510
1307400000 -0.74248934 -12.08962055 -14.47722449 57.13554395 -14.48657628 57.22610559 -0.72663160 -16.29600805
1312390000 -0.74975103 -12.11600761 -14.47549770 57.12340433 -14.46557367 57.15202259 -0.73180233 -16.37997724
1317380000 -0.75274637 -12.04146905 -14.43950903 57.18168434 -14.45242517 57.12725858 -0.73515830 -16.44556723
1322370000 -0.75897962 -12.05987439 -14.41685152 57.20164981 -14.42148054 57.26260517 -0.73963024 -16.46120022
1327360000 -0.75882850 -12.07094803 -14.40115738 57.07374503 -14.40389056 57.18172923 -0.74909759 -16.51168571
1332350000 -0.75224895 -11.93718791 -14.35699291 56.99196669 -14.36972320 57.06619781 -0.74180940 -16.53291671
1337340000 -0.75867600 -12.00158727 -14.32414865 57.14463316 -14.31425812 57.09019028 -0.74856351 -16.57827692
1342330000 -0.74798033 -11.96681075 -14.27799358 56.93483493 -14.30056193 56.94269175 -0.74656416 -16.63987001
1347320000 -0.74845362 -11.97213086 -14.27697905 56.92333284 -14.26928274 56.90313706 -0.75678703 -16.69879983
1352310000 -0.75352743 -12.02763294 -14.24659798 56.90684841 -14.27304280 56.95133400 -0.75604530 -16.72153301
1357300000 -0.75744761 -12.09027506 -14.22692512 56.81106885 -14.22243067 56.67716265 -0.76652819 -16.76243552
1362290000 -0.76712104 -12.13916229 -14.20852531 56.70936093 -14.21306570 56.75608172 -0.76899960 -16.77183463
1367280000 -0.77211018 -12.21907221 -14.18681332 56.63243117 -14.19335586 56.75289750 -0.78142823 -16.83922226
1372270000 -0.78318404 -12.27833101 -14.16264838 56.59512249 -14.16403900 56.54264975 -0.78599044 -16.96222436
1377260000 -0.79425697 -12.35840715 -14.15177927 56.59397496 -14.16510308 56.59418019 -0.79172567 -16.99776061
1382250000 -0.80337507 -12.31784429 -14.13869424 56.80270631 -14.12396770 56.69966967 -0.78546866 -16.98409531
1387240000 -0.81655666 -12.44668845 -14.11869005 56.56914320 -14.11571461 56.70856327 -0.79807715 -17.01733582
1392230000 -0.80820775 -12.55998752 -14.09116302 56.55626277 -14.09657782 56.57850771 -0.80264110 -17.11180084
1397220000 -0.81285669 -12.56263514 -14.04218486 56.54665940 -14.07217306 56.64966265 -0.80232618 -17.12276863
1402210000 -0.80882553 -12.65969816 -14.00626051 56.53016697 -14.05007433 56.53159284 -0.79113325 -17.19808469
1407200000 -0.81502553 -12.75374958 -13.99850155 56.51949265 -14.01214195 56.43633349 -0.79386566 -17.29040260
1412190000 -0.81393431 -12.76916307 -13.97700060 56.53484063 -13.99560713 56.45560404 -0.78793278 -17.32786025
1417180000 -0.80998567 -12.80411303 -13.97103745 56.44226190 -13.96521608 56.42328159 -0.79024196 -17.41155000
1422170000 -0.81761057 -12.82666517 -13.95730551 56.38566299 -13.93481922 56.45955165 -0.79837638 -17.42596377
1427160000 -0.82659163 -12.82153767 -13.91741647 56.33973090 -13.92524135 56.24013666 -0.80121264 -17.56248332
1432150000 -0.82476425 -12.85309622 -13.86835881 56.44797417 -13.89966076 56.42478481 -0.79400831 -17.53975443
1437140000 -0.83101904 -12.82007579 -13.87953707 56.35468379 -13.86561447 56.20407034 -0.80734054 -17.60852472
1442130000 -0.83448829 -12.80983268 -13.84944059 56.21200526 -13.84510058 56.33619304 -0.81579060 -17.63101621
1447120000 -0.82732269 -12.80996649 -13.80885568 56.08172060 -13.80473600 56.25207255 -0.82315426 -17.74934750
1452110000 -0.84245448 -12.73902262 -13.78839476 56.03173662 -13.80109789 56.14305565 -0.82170999 -17.71457781
1457100000 -0.83504888 -12.77800234 -13.76585443 55.97304565 -13.74957801 56.03916757 -0.83811008 -17.83509392
1462090000 -0.83726326 -12.80280563 -13.74608787 56.02805769 -13.73324825 56.07786107 -0.83556134 -17.81981006
1467080000 -0.83737553 -12.85152590 -13.71644720 55.95743753 -13.71837789 56.14030844 -0.83736118 -17.88912319
1472070000 -0.85456338 -12.89407813 -13.71484925 55.81654764 -13.72460967 55.89093383 -0.85220393 -17.96914653
1477060000 -0.85583357 -12.98875647 -13.70082722 55.94742945 -13.67930149 55.87811633 -0.85089294 -18.06167762
1482050000 -0.87870221 -12.98300058 -13.68522658 55.80621298 -13.67569361 55.84335011 -0.86251714 -18.08878324
1487040000 -0.88428950 -13.06520621 -13.64617447 55.98343748 -13.66810380 55.86442948 -0.86895003 -18.10053492
1492030000 -0.88153718 -13.13875793 -13.63171845 55.78139394 -13.63462570 55.82305473 -0.87461467 -18.16548979
1497020000 -0.88809698 -13.15280382 -13.60682456 55.74816162 -13.60689419 55.89451986 -0.87217026 -18.25487511
1502010000 -0.87977043 -13.21966342 -13.59091333 55.70234426 -13.60980994 55.80499273 -0.87431486 -18.34285011
1507000000 -0.87825717 -13.29750201 -13.56321799 55.56808133 -13.57217272 55.84101800 -0.87579535 -18.36398955
1511990000 -0.88011693 -13.27265165 -13.54785346 55.77803854 -13.54608871 55.76336299 -0.88093088 -18.37863877
1516980000 -0.86801250 -13.36603677 -13.52491720 55.58030182 -13.51963891 55.58277632 -0.88317529 -18.47781463
1521970000 -0.86768839 -13.40187003 -13.49340321 55.80135968 -13.48674273 55.72119862 -0.88350935 -18.50262971
1526960000 -0.86239536 -13.48735484 -13.45494826 55.62253167 -13.45774203 55.66432200 -0.87576004 -18.55450598
1531950000 -0.86941143 -13.54380501 -13.44035182 55.40290428 -13.44696720 55.51029248 -0.88628263 -18.64947425
1536940000 -0.86679979 -13.56694270 -13.43178726 55.39853366 -13.43101954 55.51151372 -0.88890488 -18.62217755
1541930000 -0.87351735 -13.55268569 -13.40988998 55.44648076 -13.40284459 55.44648048 -0.88871239 -18.68569776
1546920000 -0.86880199 -13.55307868 -13.36537328 55.33191774 -13.37112144 55.50832361 -0.89462228 -18.71613910
1551910000 -0.88389158 -13.54044375 -13.33318816 55.14718448 -13.35451129 55.36510290 -0.89686812 -18.80060264
1556900000 -0.88393236 -13.59309197 -13.31498170 55.33102659 -13.33806329 55.34578936 -0.90168002 -18.82983553
1561890000 -0.88916046 -13.55391535 -13.28961553 55.22039948 -13.31133447 55.19655593 -0.90878544 -18.83416715
1566880000 -0.90115249 -13.59430245 -13.29365092 55.26307390 -13.29136654 55.23550714 -0.90912452 -18.89447415
1571870000 -0.90675544 -13.62223474 -13.26050048 55.29403400 -13.26337962 55.07747561 -0.91695364 -18.96657777
1576860000 -0.92583995 -13.62619396 -13.25256432 55.06504586 -13.24166204 55.19668096 -0.91564407 -18.96717332
1581850000 -0.93349811 -13.71657739 -13.23339034 55.06610606 -13.24065733 55.02609480 -0.92057212 -19.10698588
1586840000 -0.93285600 -13.68570906 -13.22739225 55.16107275 -13.21457210 55.04931261 -0.93348943 -19.11306753
1591830000 -0.94510899 -13.73668085 -13.21116589 55.10939099 -13.19325655 54.98977235 -0.93902909 -19.12707837
1596820000 -0.94321404 -13.83407465 -13.18437257 54.92192234 -13.17971874 55.02422321 -0.93434207 -19.22192019
1601810000 -0.93388450 -13.88170326 -13.15890542 54.90623936 -13.16096300 55.02609461 -0.94088749 -19.30104633
1606800000 -0.94988426 -13.93840384 -13.15199441 55.02431404 -13.16464286 54.86651129 -0.94361098 -19.26074641
1611790000 -0.93922414 -14.01142079 -13.12111418 54.82715875 -13.11396277 54.83801864 -0.94122272 -19.38296090
1616780000 -0.94092993 -14.07643096 -13.06537533 54.84300800 -13.08730394 54.93518144 -0.94766766 -19.43215778
1621770000 -0.93386982 -14.10378675 -13.07809038 54.77439875 -13.07252829 54.78967773 -0.94511128 -19.47067222
1626760000 -0.93180937 -14.13365247 -13.03950252 54.80167928 -13.06074192 54.71050207 -0.94874676 -19.54518608
1631750000 -0.93157951 -14.21428909 -13.02191997 54.69912908 -13.03052420 54.73200628 -0.94697380 -19.58211524
1636740000 -0.92463925 -14.23534097 -12.99417100 54.75661296 -13.01133376 54.72557339 -0.95091452 -19.60680369
1641730000 -0.91611005 -14.24955851 -12.98314962 54.52918120 -12.97876607 54.70896358 -0.95652601 -19.65156455
1646720000 -0.91959856 -14.30029251 -12.94864331 54.53065642 -12.96894755 54.51475909 -0.95681552 -19.69351134
1651710000 -0.92660094 -14.35845415 -12.94463071 54.51433706 -12.92991958 54.46661739 -0.96538755 -19.75018999
1656700000 -0.92057072 -14.33362951 -12.91601645 54.50660196 -12.92023613 54.47956861 -0.96684740 -19.80178931
1661690000 -0.92437388 -14.35925256 -12.90711873 54.45162927 -12.89887081 54.40784254 -0.97585835 -19.86899838
1666680000 -0.92877565 -14.34201315 -12.86906676 54.31434709 -12.88984766 54.28158006 -0.97751301 -19.85104143
1671670000 -0.94178577 -14.37974931 -12.87748802 54.24122826 -12.86557203 54.36318416 -0.98204636 -19.92008615
1676660000 -0.94870171 -14.43252402 -12.84823806 54.21499111 -12.85951810 54.17604528 -0.99285670 -19.95640053
1681650000 -0.95652538 -14.41346914 -12.84325082 54.21623269 -12.83929026 54.14263922 -0.99906678 -20.01396211
1686640000 -0.96198154 -14.47529678 -12.81100398 54.18464259 -12.80802390 54.23579108 -0.99585319 -20.07823430
1691630000 -0.97007261 -14.52452693 -12.79662118 54.06944535 -12.81581115 54.14348391 -1.01347486 -20.11527553
1696620000 -0.98011753 -14.50058983 -12.78873750 54.07208574 -12.78326067 54.20472395 -1.02328638 -20.18223812
1701610000 -0.98142954 -14.57838884 -12.76094704 54.02104996 -12.76411617 54.09095236 -1.01381137 -20.21427662
1706600000 -0.97970024 -14.67371264 -12.73543582 54.13785619 -12.76166388 54.15096689 -1.01805777 -20.25991576
1711590000 -0.98546161 -14.65574637 -12.72174393 54.17405007 -12.73885061 54.11391858 -1.02928639 -20.30391767
1716580000 -0.98801078 -14.78134475 -12.69461570 54.08483137 -12.70608176 54.13907182 -1.02919595 -20.27948125
1721570000 -0.98111696 -14.81038309 -12.69443166 54.09303167 -12.67975962 53.94298599 -1.02756908 -20.43103705
1726560000 -0.97528385 -14.85869217 -12.65246103 54.00219847 -12.67249765 53.99309906 -1.03344884 -20.41333089
1731550000 -0.97038330 -14.94185000 -12.64704283 54.04415946 -12.61994436 53.82286232 -1.02624852 -20.46915832
1736540000 -0.96629597 -14.97678022 -12.61481790 53.89604218 -12.62696662 53.91326414 -1.03188102 -20.49578714
1741530000 -0.95619603 -15.00831069 -12.59370607 53.86374291 -12.61154545 53.84721322 -1.02383036 -20.56704901
1746520000 -0.95949765 -15.03433012 -12.55981239 53.72439727 -12.56428139 53.71979054 -1.03194969 -20.61382720
1751510000 -0.95918299 -15.04935903 -12.55768057 53.61725841 -12.57109044 53.75101044 -1.03855551 -20.65538177
1756500000 -0.95681882 -15.12134232 -12.52689853 53.52547738 -12.54383188 53.58468400 -1.03303130 -20.74496532
1761490000 -0.95969148 -15.19799612 -12.52792181 53.59857123 -12.51152379 53.61889890 -1.04088529 -20.74764413
1766480000 -0.95886545 -15.17006228 -12.50701200 53.43343143 -12.51169821 53.48060663 -1.05394638 -20.78765580
1771470000 -0.96920582 -15.16873083 -12.48297109 53.44153520 -12.49683588 53.40365382 -1.05572066 -20.89675758
1776460000 -0.97480662 -15.24793270 -12.46676015 53.40101262 -12.46602233 53.38307484 -1.06727520 -20.85647324
1781450000 -0.99103256 -15.20778935 -12.43790960 53.17657535 -12.46795077 53.34361031 -1.07176286 -20.92269946
1786440000 -0.99246141 -15.25496394 -12.45573899 53.29539869 -12.43786065 53.12650557 -1.07596565 -21.00812200
1791430000 -1.01204937 -15.34260517 -12.43013269 53.08654241 -12.44642291 53.16646059 -1.08330124 -21.02387365
1796420000 -1.01148830 -15.32222158 -12.40152392 53.19701970 -12.39858990 53.18513781 -1.08898972 -21.10047759
1801410000 -1.01963245 -15.40867640 -12.40847464 53.04643262 -12.40382492 53.08288823 -1.09183914 -21.17657899
1806400000 -1.02686944 -15.42116575 -12.39122611 53.29930406 -12.38773408 53.20457620 -1.09502668 -21.21528792
1811390000 -1.01989508 -15.41405238 -12.35515839 53.20303181 -12.34451619 53.06957794 -1.09556022 -21.20648414
1816380000 -1.03496409 -15.53628968 -12.35476630 53.31518582 -12.34254339 52.98378327 -1.09850298 -21.34684183
1821370000 -1.02956600 -15.54648570 -12.31359411 53.13246324 -12.31277158 53.08258321 -1.10513328 -21.41003353
1826360000 -1.03075657 -15.56031090 -12.29272896 53.11952617 -12.29175139 53.06168298 -1.10667752 -21.37552983
1831350000 -1.02474372 -15.63570631 -12.28228640 53.09681847 -12.27197060 52.96872509 -1.09926320 -21.48925680
1836340000 -1.00956409 -15.67990268 -12.27049605 53.01363982 -12.24817318 53.09143822 -1.09745305 -21.44441215
1841330000 -1.01926374 -15.80141732 -12.24199272 53.00848287 -12.22716907 52.90949770 -1.10304806 -21.49863859
1846320000 -0.99857362 -15.84940159 -12.20846741 52.89949608 -12.22481434 52.80757596 -1.10270870 -21.54509111
1851310000 -0.99115434 -15.83924417 -12.20155513 52.62697371 -12.21152257 52.80397790 -1.10711926 -21.60254064
1856300000 -0.99507889 -15.93032745 -12.18182786 52.64632544 -12.17825356 52.71297458 -1.11216646 -21.64860175
1861290000 -1.00274880 -15.93665281 -12.16700840 52.58906255 -12.17585972 52.63983978 -1.11590507 -21.67544799
1866280000 -0.98434290 -15.98961354 -12.15780136 52.48592732 -12.15920159 52.56378568 -1.11991660 -21.66821990
1871270000 -0.99951748 -16.04680438 -12.13132300 52.28635235 -12.12829673 52.28511964 -1.11444483 -21.74114212
1876260000 -1.00835669 -16.02292294 -12.11288885 52.40248819 -12.13565274 52.17249886 -1.12408597 -21.81835153
1881250000 -1.01397469 -16.04034578 -12.12031115 52.46002939 -12.09546291 52.41027948 -1.13368178 -21.78176252
1886240000 -1.01063647 -16.05245909 -12.09267118 52.14794982 -12.09383507 52.31469086 -1.14840993 -21.86943816
1891230000 -1.03110049 -16.03304345 -12.06884638 52.36122131 -12.08939803 52.21512542 -1.14053941 -21.97227648
1896220000 -1.03677866 -16.12844241 -12.04425110 52.29502976 -12.06201736 52.21817294 -1.15677182 -21.95643383
1901210000 -1.05309810 -16.13282594 -12.05661890 52.21345829 -12.04310284 52.09351733 -1.17024862 -22.04186454
1906200000 -1.05024272 -16.16195265 -12.03741366 52.20270312 -12.05973735 52.24173491 -1.18143710 -22.08549409
1911190000 -1.05637048 -16.23072993 -12.01946976 52.12050728 -12.02272006 52.23886524 -1.17993262 -22.06129708
1916180000 -1.06157221 -16.34615885 -12.01524032 52.10254226 -12.00128114 52.13715145 -1.18090163 -22.17080300
1921170000 -1.05351520 -16.36576789 -11.99301135 52.02025217 -11.97436301 51.98886233 -1.17520670 -22.26109303
1926160000 -1.06161752 -16.42072101 -11.98506865 52.08111118 -11.98041137 51.94898692 -1.17074412 -22.26132243
1931150000 -1.06018605 -16.43945610 -11.94313546 52.12595528 -11.95315276 52.06442379 -1.18068603 -22.34368471
1936140000 -1.06063936 -16.50615535 -11.92980359 51.94876084 -11.92286888 51.86064002 -1.18104914 -22.43675150
1941130000 -1.05694334 -16.48651769 -11.92510203 51.95947044 -11.92919461 51.89282113 -1.19873411 -22.42061051
1946120000 -1.04480682 -16.58030884 -11.90915403 52.06356814 -11.90477580 51.95133765 -1.18958550 -22.37518646
1951110000 -1.03378262 -16.65826393 -11.88194363 51.87524753 -11.88451424 51.86794677 -1.18918029 -22.51334075
1956100000 -1.02769325 -16.70818450 -11.88303896 51.65254832 -11.85430514 51.85580971 -1.18935781 -22.52368407
1961090000 -1.02947943 -16.72604531 -11.82693121 51.68539964 -11.84669613 51.58789869 -1.19779706 -22.60787003
1966080000 -1.02728808 -16.84920908 -11.83079583 51.65874309 -11.80915326 51.64489771 -1.18871733 -22.60861297
1971070000 -1.02452371 -16.89728806 -11.82182436 51.39885782 -11.79502426 51.47634142 -1.19170648 -22.64826378
1976060000 -1.03027381 -16.88369282 -11.78821888 51.35008804 -11.80418091 51.34994854 -1.19790188 -22.70978453
1981050000 -1.02659487 -16.83390316 -11.79486967 51.20396683 -11.78836244 51.23018144 -1.20493395 -22.76576512
1986040000 -1.03112933 -16.79499616 -11.75218437 51.23572291 -11.76130176 51.39768705 -1.21320217 -22.78684707
1991030000 -1.03287834 -16.81727398 -11.72998811 51.21027555 -11.75700563 51.36479441 -1.20709820 -22.81958239
1996020000 -1.05651015 -16.90918280 -11.74502231 51.19741591 -11.74835693 51.22649348 -1.22238014 -22.86787552
2001010000 -1.05747154 -16.94314959 -11.71455861 50.99949648 -11.73422828 50.97713013 -1.23623730 -22.99989591
2006000000 -1.06497463 -16.98077625 -11.71575230 51.15187355 -11.70358489 51.13031175 -1.23803719 -22.90772981
2010990000 -1.06843833 -17.00185310 -11.68284744 51.12913221 -11.71555432 51.12060122 -1.24098897 -22.98738198
2015980000 -1.08166078 -16.99689580 -11.69858106 51.11844765 -11.69546385 51.02282201 -1.26090728 -23.05914843
2020970000 -1.08624138 -17.09503564 -11.68138621 51.02407060 -11.68334762 51.12117039 -1.26122582 -23.11987953
2025960000 -1.09102633 -17.10197719 -11.65177850 50.98897383 -11.66177244 51.01132954 -1.25734606 -23.20705043
2030950000 -1.09357393 -17.18277750 -11.64885075 50.89645831 -11.65628439 51.04284445 -1.27380501 -23.14881407
2035940000 -1.08161160 -17.23565693 -11.63646870 50.93870770 -11.63460136 50.95384307 -1.26783062 -23.26685135
2040930000 -1.07881741 -17.35426291 -11.61552317 50.97620616 -11.61178271 50.98247432 -1.26629961 -23.25960494
2045920000 -1.08183635 -17.37265887 -11.58477290 50.84394742 -11.60574029 50.91537609 -1.26721569 -23.33276568
2050910000 -1.07867958 -17.42220616 -11.58936542 50.88021582 -11.58051581 50.76666308 -1.27482285 -23.34965183
2055900000 -1.07952647 -17.44018541 -11.56684061 50.83883751 -11.57270171 50.70899915 -1.26860275 -23.41968211
2060890000 -1.06032938 -17.48225159 -11.53502645 50.74293572 -11.54965911 50.72932717 -1.27900545 -23.48479377
2065880000 -1.05022632 -17.63567666 -11.51352230 50.56072090 -11.52285798 50.62921189 -1.27601136 -23.45335214
2070870000 -1.05140970 -17.64183388 -11.49940929 50.39308635 -11.50529305 50.46922221 -1.28068096 -23.45218195
2075860000 -1.05046566 -17.66344270 -11.48066183 50.43427052 -11.49765092 50.46229547 -1.27880985 -23.56623842
2080850000 -1.05762970 -17.65434182 -11.47207090 50.39619253 -11.47448510 50.39626367 -1.28823245 -23.53679917
2085840000 -1.06298369 -17.72700661 -11.48487480 50.32981860 -11.48348696 50.41263034 -1.28990032 -23.58715509
2090830000 -1.06207400 -17.68663166 -11.44400413 50.19570116 -11.46049687 50.25230395 -1.29000496 -23.59764048
2095820000 -1.07849198 -17.73248633 -11.46337265 50.10305689 -11.45240281 50.24123645 -1.29395092 -23.64095513
2100810000 -1.08477540 -17.66676104 -11.43389067 50.19397358 -11.42003712 50.18397215 -1.30616676 -23.73653869
2105800000 -1.09538366 -17.74614689 -11.44590212 49.95723702 -11.42564217 50.16242607 -1.31938761 -23.79224715
2110790000 -1.11003145 -17.70628049 -11.41010412 50.06243190 -11.42172839 49.97857388 -1.31713857 -23.83404167
2115780000 -1.11387087 -17.85011816 -11.42275127 50.00146760 -11.42658048 50.03645244 -1.32389675 -23.90564808
2120770000 -1.11485508 -17.79429887 -11.38602174 50.08809604 -11.38065597 50.00879995 -1.32059039 -23.93395958
2125760000 -1.12265021 -17.90162548 -11.37722807 49.82333798 -11.38333571 50.05735075 -1.34441151 -23.96064948
2130750000 -1.12636051 -17.85247368 -11.36960425 50.07355575 -11.35681561 50.04496160 -1.33209936 -24.06075583
2135740000 -1.12194555 -17.93196201 -11.36805499 50.07369833 -11.35159009 49.88802305 -1.34226648 -24.13414620
2140730000 -1.12828156 -18.01198227 -11.35013321 49.92261936 -11.35654029 50.00950711 -1.34528051 -24.14618103
2145720000 -1.12225178 -18.09412007 -11.32852151 49.75488433 -11.34070191 49.77603159 -1.33738091 -24.17054332
2150710000 -1.11444118 -18.17433896 -11.30427946 49.78960459 -11.30117828 49.73480793 -1.34420221 -24.18034695
2155700000 -1.10669618 -18.17291081 -11.28834879 49.81719118 -11.29117333 49.77664512 -1.34632523 -24.19961713
2160690000 -1.10467775 -18.23776634 -11.28620213 49.70810108 -11.26924060 49.71745206 -1.34643069 -24.28845704
2165680000 -1.09872564 -18.30087282 -11.25253161 49.70048469 -11.25077187 49.65441930 -1.35528662 -24.27720709
2170670000 -1.10278187 -18.35162182 -11.25028544 49.59832310 -11.24521812 49.54363598 -1.35441821 -24.31623053
2175660000 -1.08757317 -18.42244065 -11.21444745 49.45121927 -11.21597000 49.56237468 -1.35755333 -24.32618372
2180650000 -1.09654498 -18.37779870 -11.19503294 49.50247734 -11.20605618 49.49688091 -1.35007725 -24.45122752
2185640000 -1.09869752 -18.44687394 -11.18273553 49.53462789 -11.20431244 49.36619048 -1.36713355 -24.43307754
2190630000 -1.08826119 -18.43534637 -11.20722185 49.17848631 -11.17956227 49.20144142 -1.37435284 -24.50632928
2195620000 -1.10411019 -18.47139592 -11.18407366 49.23230373 -11.17682695 49.18339798 -1.38503179 -24.52756634
2200610000 -1.10998219 -18.47837098 -11.16787527 49.12770900 -11.18552540 49.18514302 -1.38169541 -24.56942218
2205600000 -1.11848969 -18.52930910 -11.17119756 49.04594868 -11.15870395 49.09232225 -1.39466711 -24.58496140
2210590000 -1.12750833 -18.49048317 -11.15405940 49.04807522 -11.15315168 49.08810314 -1.39517191 -24.69085897
2215580000 -1.13677177 -18.45599750 -11.13454912 49.03565574 -11.14209178 49.03204012 -1.40314743 -24.61764243
2220570000 -1.16088020 -18.46359889 -11.15131759 48.93642597 -11.14217750 49.02338898 -1.41076265 -24.73027916
2225560000 -1.15188604 -18.62126811 -11.11501704 48.91452426 -11.14111876 48.95297261 -1.42137176 -24.79716909
2230550000 -1.15353561 -18.57766560 -11.10557279 48.98071580 -11.11755861 48.90110028 -1.41971198 -24.86405098
2235540000 -1.15867204 -18.67144669 -11.10580313 48.99592988 -11.09445048 48.98932162 -1.43470734 -24.85603463
2240530000 -1.16146953 -18.71323096 -11.08333352 48.91418930 -11.10023480 48.92815552 -1.42571376 -24.92394955
2245520000 -1.16234767 -18.78563830 -11.07342737 48.82288787 -11.08065703 48.96786067 -1.42354166 -24.94289516
2250510000 -1.16534287 -18.79606941 -11.06677249 48.90012394 -11.07427859 48.84779941 -1.43376258 -24.98328215
2255500000 -1.16559327 -18.94101715 -11.04908561 48.88011646 -11.03518371 48.81550210 -1.43995754 -24.99018769
2260490000 -1.15181284 -18.97644806 -11.02989125 48.65231007 -11.03608946 48.74878436 -1.43333862 -25.09144331
2265480000 -1.15205770 -18.97139856 -11.00177469 48.78924296 -11.00646452 48.68220496 -1.43641138 -25.14189945
2270470000 -1.15020262 -19.06815284 -10.98914226 48.68972392 -10.97807491 48.64609303 -1.43443680 -25.16173464
2275460000 -1.13297461 -19.06442620 -10.97784357 48.57855990 -10.98163348 48.46688613 -1.44558565 -25.14882227
2280450000 -1.14216987 -19.08209182 -10.94314306 48.41732873 -10.96123948 48.54094256 -1.43493766 -25.20025794
2285440000 -1.13748132 -19.18741238 -10.96679266 48.29928668 -10.94283451 48.41010513 -1.43989053 -25.20792212
2290430000 -1.13550354 -19.18702556 -10.96095341 48.29353545 -10.94135522 48.37487114 -1.45360648 -25.25983672
2295420000 -1.14649766 -19.17647464 -10.92718426 48.25030446 -10.94231659 48.30097370 -1.45642670 -25.33201492
2300410000 -1.14822643 -19.17351494 -10.91358527 48.22391613 -10.93511108 48.21686972 -1.46031738 -25.29022091
2305400000 -1.15776010 -19.20715080 -10.90671987 48.12787870 -10.93711970 48.09743054 -1.46549978 -25.36903154
2310390000 -1.16651543 -19.17101246 -10.90043434 48.12291883 -10.92940810 48.09498006 -1.46816978 -25.39269345
2315380000 -1.18264814 -19.21214229 -10.89242679 48.02257101 -10.92740025 47.97775711 -1.46909692 -25.46726396
2320370000 -1.18188964 -19.24601527 -10.87713266 47.85633951 -10.89171242 47.88962773 -1.47932647 -25.53339232
2325360000 -1.19683370 -19.21740144 -10.87165790 47.87455638 -10.88891661 47.97952355 -1.48157237 -25.63974131
2330350000 -1.20438563 -19.25076133 -10.88110320 47.94777632 -10.88915747 47.81301307 -1.49513466 -25.58211753
2335340000 -1.21644755 -19.16637692 -10.86863913 47.93484421 -10.86514263 47.81288034 -1.49523559 -25.71868231
2340330000 -1.21563558 -19.23446147 -10.85011475 47.90099634 -10.85948803 47.88221051 -1.50644553 -25.78468887
2345320000 -1.22328371 -19.26300088 -10.84314000 47.91819944 -10.86020013 47.84749424 -1.50772840 -25.71997019
2350310000 -1.22623469 -19.34738316 -10.82105016 47.93522552 -10.85420601 47.82766890 -1.50141529 -25.76312545
2355300000 -1.21253001 -19.37253195 -10.81070947 47.90268336 -10.81499785 47.89732890 -1.50631718 -25.80274283
2360290000 -1.21383718 -19.42440473 -10.79941864 47.94905594 -10.80242891 47.79873736 -1.51271569 -25.86999821
2365280000 -1.21969149 -19.59466186 -10.79267791 47.67498522 -10.80251041 47.82314887 -1.51230795 -25.90762133
2370270000 -1.20917852 -19.55533767 -10.75471404 47.67835568 -10.77352681 47.66711888 -1.50660943 -25.96280902
2375260000 -1.20931857 -19.67059117 -10.76363059 47.61980450 -10.74460351 47.68357558 -1.51928062 -25.95112999
2380250000 -1.20463430 -19.71175547 -10.73675409 47.51366231 -10.74369073 47.51704404 -1.51109247 -26.00416300
2385240000 -1.19274187 -19.72320594 -10.71929182 47.42045891 -10.73135927 47.41551647 -1.51909483 -26.04755278
2390230000 -1.19683472 -19.71678624 -10.72308800 47.42385696 -10.72693482 47.50535979 -1.53045777 -25.99238226
2395220000 -1.18854246 -19.79107332 -10.70634248 47.34742548 -10.71398219 47.35903264 -1.52878471 -26.04550541
2400210000 -1.19923205 -19.79072454 -10.70554091 47.21835034 -10.70749151 47.41324703 -1.53224135 -26.06422097
2405200000 -1.20503100 -19.76208754 -10.69594681 47.24455642 -10.70418952 47.20304266 -1.54813728 -26.14123776
2410190000 -1.20937912 -19.79841077 -10.67415273 47.33838978 -10.68199066 47.21167576 -1.53743040 -26.19702402
2415180000 -1.22579652 -19.78713704 -10.67596056 47.14831981 -10.67745431 47.23467074 -1.54808482 -26.22973941
2420170000 -1.22654962 -19.81305078 -10.66853566 47.29691673 -10.65255885 47.17799805 -1.54942066 -26.26919722
2425160000 -1.23111104 -19.79306176 -10.64835866 47.11261035 -10.66441838 47.11184680 -1.56249407 -26.25809210
2430150000 -1.25248059 -19.78075780 -10.65505884 47.03559971 -10.67070540 46.95766615 -1.57392326 -26.38975255
2435140000 -1.25718773 -19.81348819 -10.64474734 47.08223494 -10.66126607 47.05969095 -1.56617451 -26.38923919
2440130000 -1.27530368 -19.81662570 -10.64336971 46.99146825 -10.65512259 47.07518046 -1.57626198 -26.42897982
2445120000 -1.26602624 -19.87716794 -10.62497782 46.91259044 -10.63181325 46.91020130 -1.57438784 -26.49412673
2450110000 -1.28055991 -19.87807965 -10.60949934 46.95898467 -10.59554401 46.99088107 -1.57317853 -26.56461441
2455100000 -1.28721169 -19.95956707 -10.61055221 46.89761682 -10.61438780 46.94789791 -1.58687899 -26.54917597
2460090000 -1.28812886 -19.96047675 -10.60499028 46.92268744 -10.60054938 46.96064309 -1.58992609 -26.61767436
2465080000 -1.28876213 -19.95573294 -10.57723838 46.98479410 -10.57082106 46.81038008 -1.58423530 -26.67490603
2470070000 -1.28704446 -20.11983813 -10.57296521 46.78558395 -10.57371675 46.85292010 -1.58759023 -26.66180411
2475060000 -1.27731045 -20.13008317 -10.56203402 46.72843844 -10.56026827 46.75857974 -1.60138844 -26.72884264
2480050000 -1.26796449 -20.16591366 -10.52488333 46.79743941 -10.52647017 46.72164186 -1.58731319 -26.78567716
2485040000 -1.26473967 -20.20645572 -10.52452269 46.62345267 -10.51572270 46.57148246 -1.59152431 -26.78870458
2490030000 -1.26835897 -20.27919351 -10.51569975 46.63795166 -10.52409669 46.55120282 -1.59619928 -26.75368753
2495020000 -1.26922858 -20.25968295 -10.50045753 46.46910817 -10.50516510 46.50271406 -1.59016167 -26.84586916
2500010000 -1.26594513 -20.26933048 -10.50280932 46.51804937 -10.49019898 46.44026332 -1.59960419 -26.83550440
2505000000 -1.27090291 -20.33533615 -10.48843612 46.29797952 -10.48260958 46.39212217 -1.60635487 -26.88500994
2509990000 -1.26791765 -20.28031064 -10.49092352 46.24984644 -10.48395015 46.35963191 -1.61408793 -26.98143046
2514980000 -1.27414536 -20.32378238 -10.47070894 46.14633188 -10.48602623 46.25176134 -1.61892551 -26.93797000
2519970000 -1.28835030 -20.33183687 -10.47320616 46.21427879 -10.46008031 46.23678539 -1.62316354 -26.99727249
2524960000 -1.29115276 -20.33468733 -10.45899129 46.15346197 -10.46792205 46.05233931 -1.62955288 -27.04072353
2529950000 -1.30036588 -20.34168022 -10.44729009 46.06301198 -10.45290953 45.98774052 -1.63913085 -27.14236902
2534940000 -1.30737435 -20.28104038 -10.43355904 45.92516821 -10.43865339 45.99538572 -1.64007509 -27.25381257
2539930000 -1.32541246 -20.35249267 -10.42200867 46.01434553 -10.44451319 45.98499629 -1.64116230 -27.20335517
2544920000 -1.33235109 -20.39220592 -10.43308159 45.91361592 -10.43829867 46.00770917 -1.65756088 -27.25304938
2549910000 -1.34373990 -20.36260235 -10.42790105 45.82456230 -10.41573308 46.10721419 -1.65426073 -27.31489712
2554900000 -1.34183673 -20.35870813 -10.42476987 45.92684832 -10.41127291 46.01701129 -1.66377611 -27.36344368
2559890000 -1.35025898 -20.40946477 -10.40419306 46.01950605 -10.40136184 45.99221639 -1.66541925 -27.39108847
2564880000 -1.36079204 -20.37968149 -10.38548767 45.92930743 -10.39724715 45.94898426 -1.66334916 -27.42228425
2569870000 -1.35427725 -20.44966790 -10.39353771 45.88378943 -10.38245529 45.95046465 -1.67847739 -27.50976683
2574860000 -1.34600537 -20.59678965 -10.36424482 45.80903809 -10.36404100 45.85820801 -1.66430955 -27.52667405
2579850000 -1.34622621 -20.57055868 -10.35250065 45.90969354 -10.34559467 45.86634940 -1.66377334 -27.55871342
2584840000 -1.33773216 -20.61690003 -10.34534198 45.75097985 -10.35056682 45.73101128 -1.66807468 -27.53224522
2589830000 -1.34417378 -20.70767105 -10.32700668 45.78233805 -10.31601578 45.76577083 -1.66789441 -27.59583689
2594820000 -1.33940702 -20.68996266 -10.32004129 45.62615054 -10.31905030 45.71420505 -1.66931946 -27.52973397
2599810000 -1.33369309 -20.73866058 -10.30885654 45.51651459 -10.30528168 45.65487510 -1.68715693 -27.64224048
2604800000 -1.32682836 -20.71918622 -10.28826978 45.65354729 -10.30620247 45.52949879 -1.68370658 -27.67594450
2609790000 -1.34325550 -20.80108291 -10.26648322 45.39584722 -10.28411718 45.52603001 -1.68137245 -27.70155972
2614780000 -1.33044947 -20.79111854 -10.27816084 45.47189157 -10.26493109 45.46408971 -1.68971671 -27.67058109
2619770000 -1.33951280 -20.77460562 -10.29576880 45.28314146 -10.28450472 45.39249200 -1.68780655 -27.72965746
2624760000 -1.34754468 -20.79947470 -10.27349473 45.28447736 -10.27152131 45.31664624 -1.70347363 -27.73757280
2629750000 -1.34740184 -20.77941718 -10.25918733 45.32720674 -10.25561466 45.24529106 -1.70924072 -27.85842639
2634740000 -1.37639463 -20.77979765 -10.26344080 45.25609579 -10.26466126 45.16519051 -1.71376390 -27.85100385
2639730000 -1.37918876 -20.77843005 -10.24540840 45.14998846 -10.24643448 45.20537730 -1.71813488 -27.91637192
2644720000 -1.38432111 -20.79369029 -10.24703030 45.23640495 -10.23873025 45.27653194 -1.72828547 -27.93460645
2649710000 -1.39719576 -20.78365662 -10.24148046 45.13146306 -10.23467923 45.20305302 -1.73401707 -27.98015964
2654700000 -1.40864597 -20.79556918 -10.22888508 45.12619683 -10.23077078 45.01747284 -1.73413422 -28.06142396
2659690000 -1.41534040 -20.82031615 -10.21624361 45.11186106 -10.22364576 45.11657523 -1.74342876 -28.12420534
2664680000 -1.42360178 -20.74347913 -10.22740028 45.15187323 -10.20292834 45.13856515 -1.73601470 -28.14499068
2669670000 -1.42647066 -20.83974675 -10.18339371 45.04345560 -10.19116210 45.07408529 -1.74101067 -28.16298674
2674660000 -1.42231237 -20.86985670 -10.18198506 45.12112570 -10.19060007 45.13669509 -1.74396658 -28.20209007
2679650000 -1.41798739 -20.84846772 -10.17684724 45.07642701 -10.19227060 45.00720056 -1.74966295 -28.22986480
2684640000 -1.41963426 -20.97545017 -10.15786891 44.88359034 -10.15818673 45.01989091 -1.75225360 -28.31621514
2689630000 -1.41621074 -21.09074575 -10.15368367 44.98523834 -10.14764833 45.02408392 -1.74667546 -28.35466921
2694620000 -1.40723895 -21.14139054 -10.11231749 44.83642128 -10.14600959 44.98835257 -1.74804124 -28.34779021
2699610000 -1.41127903 -21.10208911 -10.12367643 44.92221682 -10.12384439 44.87690372 -1.75029328 -28.39716338
2704600000 -1.40591425 -21.14864530 -10.11739449 44.84291480 -10.11653714 44.74303589 -1.75195527 -28.38058371
2709590000 -1.40608223 -21.18179352 -10.10011416 44.71468705 -10.11574294 44.75939980 -1.76761655 -28.42270291
2714580000 -1.39973376 -21.15505970 -10.09256826 44.55827105 -10.10307155 44.72070463 -1.76726031 -28.44965148
2719570000 -1.41049298 -21.18033580 -10.08867842 44.65153521 -10.08925514 44.58657285 -1.76298752 -28.48009491
2724560000 -1.41341362 -21.22005991 -10.09456004 44.47364931 -10.08410966 44.58560879 -1.76831436 -28.50188274
2729550000 -1.41555186 -21.21502214 -10.08116956 44.49825650 -10.07219288 44.49672857 -1.78253621 -28.51525196
2734540000 -1.42710952 -21.11977357 -10.07912594 44.41938804 -10.07298893 44.40239461 -1.78572616 -28.52541752
2739530000 -1.44049898 -21.11113905 -10.06982775 44.47781524 -10.07434546 44.40774339 -1.78755362 -28.63137587
2744520000 -1.43910074 -21.16585776 -10.05555609 44.32991081 -10.05579782 44.32178282 -1.79896939 -28.65729891
2749510000 -1.44720683 -21.16410366 -10.04941673 44.31147464 -10.05744545 44.39338522 -1.79750884 -28.66880237
2754500000 -1.46317242 -21.11334804 -10.04876589 44.31194498 -10.03871181 44.29148168 -1.79602223 -28.77709155
2759490000 -1.46774163 -21.19069275 -10.04238925 44.24631607 -10.02270626 44.22266730 -1.81136676 -28.77522918
2764480000 -1.48013640 -21.10282320 -10.03686072 44.36509100 -10.02796562 44.28101687 -1.80697061 -28.86091743
2769470000 -1.49664708 -21.17327445 -10.02399415 44.09923137 -10.01708276 44.22264172 -1.82174549 -28.88232877
2774460000 -1.49756094 -21.22821891 -10.01494081 44.22995134 -9.99789770 44.26366599 -1.81917117 -28.90360808
2779450000 -1.49902085 -21.24387028 -9.99106466 44.15548307 -10.00965369 44.25844337 -1.82675044 -29.03483720
2784440000 -1.50618262 -21.27349906 -9.99971488 44.22612856 -10.00127061 44.19770853 -1.82048968 -28.99101602
2789430000 -1.49462432 -21.31141735 -9.96541938 44.21596832 -9.98408017 44.19817897 -1.81082461 -29.04437362
2794420000 -1.49230970 -21.34510457 -9.97639502 44.10637732 -9.97638654 44.07681163 -1.82100653 -29.08809862
2799410000 -1.48840741 -21.45853162 -9.95118777 44.05699187 -9.95669821 44.08002315 -1.82316017 -29.03426681
2804400000 -1.49699518 -21.51941192 -9.93078215 44.00230694 -9.94404525 43.97931314 -1.82416177 -29.08170078
2809390000 -1.48082500 -21.54692045 -9.95005475 44.01227162 -9.95190572 43.92191475 -1.83763201 -29.08649805
2814380000 -1.48240420 -21.53831368 -9.92663586 43.93765035 -9.93951822 43.85545130 -1.83707947 -29.13808234
2819370000 -1.47791643 -21.52305339 -9.91148689 43.87566221 -9.93355617 43.90851979 -1.83476516 -29.18878189
2824360000 -1.48021053 -21.61939913 -9.91915331 43.69698047 -9.92185399 43.86695554 -1.84270507 -29.17964264
2829350000 -1.48364924 -21.60699472 -9.90989439 43.73209251 -9.90478791 43.67086974 -1.84762904 -29.23842569
2834340000 -1.49335599 -21.61791804 -9.88802650 43.67129797 -9.89885896 43.68723412 -1.84120809 -29.28764940
2839330000 -1.49702147 -21.57027981 -9.90913078 43.62747050 -9.90152180 43.59574103 -1.86146067 -29.29006716
2844320000 -1.48881829 -21.60911449 -9.88819642 43.51729590 -9.90950950 43.64392067 -1.86898596 -29.32106728
2849310000 -1.51479373 -21.58406821 -9.89617140 43.60654904 -9.87969368 43.57283905 -1.86471993 -29.34804600
2854300000 -1.52615006 -21.51791594 -9.88208919 43.55123277 -9.87453753 43.50368661 -1.87932742 -29.44786088
2859290000 -1.53591416 -21.53781099 -9.88577368 43.53877019 -9.87352735 43.38145190 -1.88161143 -29.43897912
2864280000 -1.53317944 -21.55507177 -9.87616576 43.42830589 -9.87919687 43.44847652 -1.89764649 -29.53004124
2869270000 -1.54159700 -21.58921626 -9.87027194 43.50284686 -9.88076534 43.48648129 -1.89815219 -29.53158353
2874260000 -1.55779194 -21.57900308 -9.85141851 43.50004844 -9.86256348 43.41558215 -1.88706825 -29.61385874
2879250000 -1.57177674 -21.63379476 -9.84943868 43.36640811 -9.84687778 43.47252242 -1.90826181 -29.66142967
2884240000 -1.56892457 -21.63322994 -9.82536198 43.38546081 -9.83392025 43.43279029 -1.89045490 -29.66677218
2889230000 -1.58318083 -21.78411546 -9.81865224 43.30857912 -9.83593798 43.39179122 -1.89804919 -29.72070469
2894220000 -1.56553379 -21.69983519 -9.81827961 43.35928649 -9.81189200 43.35573230 -1.90931523 -29.80009725
2899210000 -1.57099534 -21.78977841 -9.81113823 43.29045194 -9.78703525 43.37359284 -1.90239830 -29.74530446
2904200000 -1.55548692 -21.78659941 -9.80258156 43.36077903 -9.79630884 43.32672330 -1.91266386 -29.81323830
2909190000 -1.56248728 -21.85737596 -9.78441011 43.24379365 -9.78033587 43.19204617 -1.91169697 -29.85389470
2914180000 -1.56572721 -21.94140744 -9.76920219 43.22527284 -9.78379712 43.20284541 -1.91210955 -29.85152850
2919170000 -1.54908262 -21.91178601 -9.75901661 43.21884301 -9.76825248 43.06317569 -1.91161318 -29.93937800
2924160000 -1.55516887 -21.94256667 -9.74562113 43.09631800 -9.76429657 43.14968530 -1.91774090 -29.94996428
2929150000 -1.56209138 -21.97143712 -9.75316609 43.03089478 -9.75734706 43.07226161 -1.91864689 -29.91783210
2934140000 -1.55409410 -21.95059960 -9.75487854 43.20322759 -9.74899092 42.90418653 -1.92088608 -29.97973344
2939130000 -1.57010097 -21.90523827 -9.74788188 43.05809412 -9.73931703 43.03571301 -1.92526540 -29.94998213
2944120000 -1.56304657 -21.99995455 -9.74564483 42.91651370 -9.73057699 42.93617055 -1.94316869 -29.97236645
2949110000 -1.56980623 -21.92944433 -9.72433555 42.85760176 -9.74046971 42.91764012 -1.94000843 -30.03095417
2954100000 -1.58102832 -21.88982317 -9.73211073 42.85870234 -9.72488492 42.85745978 -1.94972735 -30.05471133
2959090000 -1.58612921 -21.95040954 -9.71193092 42.75974841 -9.71383802 42.77203170 -1.95412920 -30.15406911
2964080000 -1.59308654 -21.93121384 -9.69794438 42.79880215 -9.71204352 42.79828382 -1.95178820 -30.14839875
2969070000 -1.61288304 -21.87982994 -9.70255877 42.79235967 -9.71108626 42.79983876 -1.96674418 -30.22263761
2974060000 -1.61366094 -21.89769289 -9.70361345 42.82022120 -9.70047548 42.86610992 -1.97550982 -30.21908648
2979050000 -1.62008944 -21.97089401 -9.69590807 42.75149461 -9.68444529 42.83557327 -1.97686427 -30.27595888
2984040000 -1.62106340 -22.01250031 -9.66904888 42.83931457 -9.68025946 42.73286658 -1.97852217 -30.30542168
2989030000 -1.63572441 -21.99335511 -9.66755177 42.88346211 -9.66553031 42.67489846 -1.98322062 -30.37853846
2994020000 -1.63814744 -22.09071911 -9.66838755 42.66359354 -9.65896922 42.69391979 -1.98263068 -30.37658597
2999010000 -1.64317019 -22.09353240 -9.64500667 42.64077830 -9.65082250 42.63806954 -1.98010685 -30.48994555
3004000000 -1.64648907 -22.13495070 -9.63796397 42.55354121 -9.63543120 42.60860964 -1.98526289 -30.46174311
3008990000 -1.64302968 -22.20899486 -9.61317954 42.59463851 -9.62812230 42.69255590 -1.98521938 -30.47898200
3013980000 -1.63966748 -22.34822261 -9.62641267 42.55142912 -9.62100433 42.52073517 -1.99284709 -30.52521811
3018970000 -1.63211666 -22.27868210 -9.61073208 42.56759866 -9.61289306 42.45960264 -1.99385603 -30.54589480
3023960000 -1.62509969 -22.28804563 -9.59620227 42.47216182 -9.58431692 42.57667505 -1.99160743 -30.56062260
3028950000 -1.62820894 -22.34793813 -9.58664417 42.42958229 -9.59110288 42.39478541 -1.99410569 -30.62577085
3033940000 -1.62518805 -22.35343780 -9.58336662 42.30733639 -9.59304784 42.31184926 -2.00251408 -30.58528021
3038930000 -1.61921539 -22.36600839 -9.57606077 42.36239317 -9.57864102 42.33145474 -2.00414567 -30.63355238
3043920000 -1.62659322 -22.38343488 -9.57957473 42.20782602 -9.56944569 42.22019685 -2.00473305 -30.68952917
3048910000 -1.62278305 -22.40027211 -9.56771108 42.29587864 -9.57661220 42.23300439 -2.01121331 -30.65713953
3053900000 -1.63927761 -22.32346301 -9.54965987 42.12340800 -9.55975528 42.17682789 -2.01870217 -30.73496623
3058890000 -1.64128331 -22.39150736 -9.56182566 42.21109341 -9.55033073 42.21393061 -2.01274904 -30.69520805
3063880000 -1.65496283 -22.37497199 -9.54363740 42.10315615 -9.54796734 42.22771088 -2.02250154 -30.74181652
3068870000 -1.65663156 -22.33789557 -9.54101660 42.10902790 -9.54882661 42.07990798 -2.03187007 -30.82986349
3073860000 -1.67160805 -22.36147763 -9.53139474 42.12248018 -9.52717279 42.14182498 -2.03863599 -30.83902323
3078850000 -1.68606401 -22.34198467 -9.52544041 42.07999609 -9.53722339 42.12041342 -2.04030247 -30.88074541
3083840000 -1.67787803 -22.36895058 -9.50863202 41.98807452 -9.51207527 42.08962957 -2.05602524 -30.92795715
3088830000 -1.69266650 -22.41942631 -9.49325969 41.97576944 -9.49965116 41.95322654 -2.04548440 -31.00053867
3093820000 -1.69253017 -22.41780892 -9.49611351 41.98889446 -9.49907623 41.99359394 -2.04902300 -31.05166089
3098810000 -1.69892924 -22.48722332 -9.48464652 41.91838032 -9.49186371 42.01446271 -2.04898379 -31.04359522
3103800000 -1.70677964 -22.49931246 -9.48147220 41.99642984 -9.48953546 42.00817993 -2.05304674 -31.14064623
3108790000 -1.69955020 -22.58633931 -9.47550671 41.85590038 -9.47790877 41.88936563 -2.05768837 -31.14204040
3113780000 -1.70731034 -22.59953505 -9.46855386 41.92554113 -9.45738009 41.86174731 -2.06078302 -31.14752742
3118770000 -1.70063947 -22.65276667 -9.45487175 41.85119997 -9.46326221 41.85961830 -2.06067612 -31.20108240
3123760000 -1.68983585 -22.70399662 -9.45745212 41.75742443 -9.43883918 41.90501203 -2.05476649 -31.22479080
3128750000 -1.69881999 -22.74704761 -9.43740807 41.68307304 -9.42959083 41.73195918 -2.07360598 -31.23640138
3133740000 -1.69152805 -22.78931193 -9.42351788 41.69052405 -9.43146666 41.74736689 -2.06884421 -31.30256437
3138730000 -1.69222378 -22.80962765 -9.43278493 41.59282295 -9.42118651 41.51970551 -2.07008773 -31.30599669
3143720000 -1.68193362 -22.79069031 -9.41807223 41.66459820 -9.42133736 41.59603569 -2.07035875 -31.27463055
3148710000 -1.68548151 -22.79055681 -9.41131523 41.55479899 -9.40580095 41.60144387 -2.08536565 -31.36075603
3153700000 -1.68704906 -22.84426002 -9.40707610 41.46926161 -9.41046887 41.43029385 -2.08396234 -31.34538649
3158690000 -1.69311313 -22.78376248 -9.39272010 41.51021873 -9.39786354 41.58736460 -2.08470369 -31.35568623
3163680000 -1.69965678 -22.77422789 -9.40115373 41.47759136 -9.39302026 41.36354105 -2.09737421 -31.42667832
3168670000 -1.70827051 -22.78098592 -9.37709182 41.48224869 -9.37751744 41.41949409 -2.09892751 -31.46596501
3173660000 -1.71025904 -22.78674018 -9.37488629 41.36747903 -9.38063685 41.37257567 -2.10868124 -31.49528382
3178650000 -1.72754352 -22.77889027 -9.38810155 41.43987371 -9.36415771 41.28240200 -2.11360811 -31.48048943
3183640000 -1.72631470 -22.74726799 -9.36822464 41.32788281 -9.36958002 41.28992900 -2.10853347 -31.58692038
3188630000 -1.73863882 -22.76549767 -9.36226848 41.38331207 -9.34483474 41.41273486 -2.11340875 -31.60619962
3193620000 -1.74934437 -22.83728549 -9.36988903 41.33434641 -9.36075442 41.30949466 -2.12605661 -31.60285292
3198610000 -1.74379265 -22.90334650 -9.34375356 41.29235589 -9.33696875 41.25792114 -2.12480329 -31.64948143
3203600000 -1.74841006 -22.91490506 -9.33724529 41.17402784 -9.33388890 41.21503715 -2.13134011 -31.70526550
3208590000 -1.76596997 -22.97871378 -9.32685993 41.22377167 -9.33330746 41.16266779 -2.13622606 -31.72956137
3213580000 -1.76618848 -22.99172444 -9.31939187 41.24065204 -9.32668722 41.13165109 -2.12964369 -31.78975444
3218570000 -1.75424004 -23.11178590 -9.31701889 41.06670893 -9.31813738 41.15788036 -2.14403542 -31.81504382
3223560000 -1.77687412 -23.13033749 -9.31099282 41.11845748 -9.30747790 41.06695828 -2.13969043 -31.85294810
3228550000 -1.75852919 -23.24647255 -9.29562923 41.07061531 -9.29806867 41.08981625 -2.14886992 -31.85552410
3233540000 -1.75566815 -23.26729741 -9.27948598 40.88572521 -9.28713410 41.00259017 -2.14575874 -31.91260912
3238530000 -1.76099296 -23.24860427 -9.27216351 40.99189687 -9.26985134 40.96737040 -2.15170502 -31.88209503
3243520000 -1.74975329 -23.32890134 -9.28414590 40.84986608 -9.27663221 40.84216822 -2.15555861 -31.97752244
3248510000 -1.74485866 -23.33182387 -9.26540488 40.92970094 -9.26807012 40.90196374 -2.14697620 -31.93577024
3253500000 -1.75239579 -23.32119929 -9.25762913 40.87165462 -9.26692040 40.86396478 -2.16790869 -31.98760692
3258490000 -1.74275070 -23.32260517 -9.24405627 40.79414933 -9.23884775 40.70283529 -2.16769000 -32.02949630
3263480000 -1.74170806 -23.32130199 -9.24917893 40.78526099 -9.24096769 40.81957449 -2.16268500 -32.04517301
3268470000 -1.75279664 -23.28420043 -9.22689406 40.64189874 -9.23231471 40.66046933 -2.16469269 -32.07603669
3273460000 -1.75758363 -23.27291897 -9.22820093 40.70144772 -9.23857644 40.63332749 -2.17934988 -32.05063451
3278450000 -1.77393414 -23.29559596 -9.22682686 40.68376907 -9.23103313 40.60071936 -2.18063020 -32.08346408
3283440000 -1.77860079 -23.30035951 -9.21653517 40.55287976 -9.21350561 40.62108223 -2.18539425 -32.16728198
3288430000 -1.77886131 -23.28624665 -9.21613250 40.53672861 -9.22346392 40.70824152 -2.19278068 -32.16049072
3293420000 -1.79435372 -23.27803464 -9.21610216 40.58739121 -9.20296346 40.72363616 -2.19597481 -32.19826848
3298410000 -1.79893253 -23.37895461 -9.20239799 40.50116908 -9.19927720 40.55669176 -2.20568509 -32.26468969
3303400000 -1.80217816 -23.37816903 -9.19049061 40.48373982 -9.19219002 40.49413712 -2.20688894 -32.32379687
3308390000 -1.81012985 -23.36099946 -9.19092947 40.61847708 -9.19937421 40.53412703 -2.20651680 -32.28939522
3313380000 -1.81394367 -23.44627443 -9.18894431 40.44700785 -9.17875352 40.41311039 -2.20194739 -32.35735434
3318370000 -1.81771269 -23.57156145 -9.15329592 40.28129568 -9.18274539 40.47853073 -2.21566249 -32.35925242
3323360000 -1.82211325 -23.68404461 -9.16463483 40.32252610 -9.15975492 40.36126932 -2.22196055 -32.37281956
3328350000 -1.81666713 -23.69083879 -9.15464169 40.36717765 -9.15029640 40.30256642 -2.21759400 -32.45306752
3333340000 -1.80945616 -23.71828276 -9.14424603 40.21672079 -9.14616559 40.23949805 -2.21838163 -32.49195481
3338330000 -1.81418834 -23.77859838 -9.13379935 40.30977220 -9.12522262 40.28500326 -2.21831212 -32.43120448
3343320000 -1.79972520 -23.84042823 -9.13697179 40.16395013 -9.12932881 40.19624509 -2.22239142 -32.50241311
3348310000 -1.79773851 -23.86351624 -9.10858482 40.17009962 -9.11785828 40.18545619 -2.21607767 -32.51506530
3353300000 -1.79700166 -23.86428129 -9.10921188 39.98126802 -9.12503021 40.09580749 -2.23107283 -32.56877329
3358290000 -1.80796754 -23.86866139 -9.11567353 40.06395993 -9.10941556 40.04495828 -2.22481296 -32.56867525
3363280000 -1.80288284 -23.85964889 -9.11131140 40.02948983 -9.11006994 40.01703366 -2.23830757 -32.57522182
3368270000 -1.80003231 -23.92857238 -9.09677632 39.96120231 -9.09863398 39.89562446 -2.24897009 -32.61260100
3373260000 -1.80305484 -23.90317148 -9.09539136 39.95251716 -9.09397844 39.90768272 -2.24577512 -32.66823594
3378250000 -1.81046777 -23.90055408 -9.08727901 39.88219375 -9.08171264 39.84798074 -2.25428849 -32.64023443
3383240000 -1.81366314 -23.92141867 -9.07672742 39.84408651 -9.09535218 39.81154100 -2.24790288 -32.72170158
3388230000 -1.82592137 -23.87503849 -9.06385272 39.75396562 -9.07874384 39.89608323 -2.25987880 -32.73538240
3393220000 -1.83330369 -23.87163553 -9.06764226 39.83351186 -9.07763083 39.83495445 -2.25845162 -32.79357551
3398210000 -1.83222465 -23.84921938 -9.07431650 39.80539343 -9.06412859 39.88959220 -2.26886952 -32.72910637
3403200000 -1.84070838 -23.85014538 -9.05735325 39.77402431 -9.07953729 39.71803424 -2.27800454 -32.82446711
3408190000 -1.85563754 -23.97587712 -9.05561768 39.78052713 -9.05512521 39.73932461 -2.26753931 -32.87567311
3413180000 -1.84738299 -24.02106990 -9.03582682 39.67851012 -9.04760443 39.65726313 -2.28594051 -32.90520684
3418170000 -1.86309074 -24.06947600 -9.02981505 39.61844797 -9.02384896 39.70372451 -2.27836606 -32.90619311
3423160000 -1.86765709 -24.12471741 -9.03740553 39.54547778 -9.03503792 39.60440108 -2.27520139 -32.96836922
3428150000 -1.86979566 -24.21593805 -9.01732937 39.56506887 -9.01435938 39.59346490 -2.28488540 -32.97576891
3433140000 -1.87132702 -24.26914223 -9.02533057 39.47369730 -9.03021127 39.54949821 -2.29532102 -33.12104819
3438130000 -1.87367723 -24.31680256 -9.01283421 39.45613951 -9.01777515 39.45804553 -2.29385838 -33.03783418
3443120000 -1.87403756 -24.39124294 -9.00533694 39.53659450 -8.99562005 39.47551080 -2.28511280 -33.08119638
3448110000 -1.85957520 -24.49057293 -9.00377195 39.37423355 -9.00107722 39.46787922 -2.28790505 -33.10566818
3453100000 -1.85490593 -24.52622416 -8.99049999 39.24657474 -9.00113951 39.33487574 -2.30118302 -33.11339934
3458090000 -1.85771719 -24.49216752 -9.00261651 39.35180527 -8.99887813 39.38469089 -2.30541730 -33.11360593
3463080000 -1.84760144 -24.53215282 -8.97514074 39.25464521 -8.97911671 39.25065070 -2.31281091 -33.17749978
3468070000 -1.85685075 -24.55251430 -8.96845138 39.28861476 -8.96894088 39.27810372 -2.30592401 -33.15932122
3473060000 -1.85767581 -24.51231650 -8.98145653 39.12199637 -8.98870450 39.26750949 -2.31486499 -33.23139660
3478050000 -1.85548122 -24.50045054 -8.96149666 39.13532498 -8.97516938 39.10999891 -2.32346245 -33.23150409
3483040000 -1.85654758 -24.57037891 -8.97184125 39.11539219 -8.96386880 39.14627379 -2.32624724 -33.24371004
3488030000 -1.87411094 -24.51318331 -8.93409087 39.00896806 -8.95407033 39.03471114 -2.32766183 -33.33352215
3493020000 -1.86810500 -24.43971810 -8.94975500 39.08923550 -8.94206740 39.09330437 -2.33004119 -33.32914898
3498010000 -1.87224089 -24.46304508 -8.93897131 39.02250485 -8.94221433 39.05429314 -2.33748626 -33.37440309
3503000000 -1.89368505 -24.55723118 -8.94881194 39.04331435 -8.93612651 38.97078279 -2.34667085 -33.33759880
3507990000 -1.89653156 -24.48739631 -8.92236285 39.10225584 -8.94629400 39.02551590 -2.33996631 -33.37273784
3512980000 -1.90509907 -24.52770261 -8.92716427 38.96680473 -8.93549288 38.95124101 -2.35195819 -33.44263939
3517970000 -1.91321215 -24.58518715 -8.93526374 38.93360891 -8.92525309 38.91439240 -2.34751529 -33.49220690
3522960000 -1.91415242 -24.66141341 -8.91879891 38.85947575 -8.91039277 38.88203103 -2.35253446 -33.53431013
3527950000 -1.91919467 -24.69412615 -8.90497569 38.85177495 -8.90996790 38.89335566 -2.35869681 -33.48058363
3532940000 -1.91197056 -24.82644961 -8.90117746 38.73324863 -8.91491382 38.75984777 -2.36089988 -33.60819319
3537930000 -1.91836281 -24.89657048 -8.91227428 38.75085002 -8.89718903 38.85584701 -2.36353042 -33.56403812
3542920000 -1.92458755 -24.85684555 -8.88595122 38.81315244 -8.87919586 38.76991776 -2.36089339 -33.62682288
3547910000 -1.92422179 -25.00409693 -8.89282115 38.64291685 -8.88924470 38.75584811 -2.36896313 -33.53708197
3552900000 -1.91859732 -25.04579193 -8.87080426 38.58786407 -8.87014986 38.66056355 -2.36236356 -33.61237860
3557890000 -1.90431513 -25.06192165 -8.86422881 38.68705792 -8.86376073 38.73819811 -2.36976673 -33.67352839
3562880000 -1.89801610 -25.12803017 -8.86400093 38.56439507 -8.85884381 38.63543052 -2.37512927 -33.73188415
3567870000 -1.90752161 -25.17109555 -8.85208339 38.43413054 -8.86541550 38.52144273 -2.37286256 -33.76205293
3572860000 -1.90885378 -25.17265002 -8.86159994 38.46108624 -8.85703462 38.49362653 -2.38246247 -33.74827228
3577850000 -1.90035899 -25.15584641 -8.84505116 38.48368392 -8.85091906 38.36974495 -2.38248003 -33.75281932
3582840000 -1.89374138 -25.19708608 -8.84238170 38.35700253 -8.84332152 38.41002615 -2.39465228 -33.79438221
3587830000 -1.91231028 -25.12561707 -8.84580727 38.33235965 -8.84920788 38.42720029 -2.39234086 -33.87703078
3592820000 -1.92284428 -25.24727703 -8.83824644 38.33674711 -8.85017998 38.35749108 -2.40695489 -33.84827523
3597810000 -1.92554594 -25.17796151 -8.83304305 38.31791439 -8.83640917 38.31183488 -2.40835973 -33.83439433
3602800000 -1.93487722 -25.18822968 -8.83642706 38.27922223 -8.82277127 38.33181340 -2.40564814 -33.83402235
3607790000 -1.93323402 -25.15150166 -8.83200364 38.31145187 -8.82932703 38.28991530 -2.41585686 -33.96646340
3612780000 -1.93551835 -25.14285681 -8.81851198 38.18749905 -8.81252772 38.27359789 -2.41944115 -33.97204874
3617770000 -1.95468324 -25.22080424 -8.82070363 38.29011652 -8.80875151 38.16368424 -2.41590121 -34.02275161
3622760000 -1.95567625 -25.17364363 -8.81536570 38.20787249 -8.82467040 38.21053504 -2.42617929 -34.06062816
3627750000 -1.95944645 -25.24308126 -8.80105002 38.23610669 -8.81046527 38.15664347 -2.42859236 -34.07323701
3632740000 -1.96350718 -25.35803744 -8.79822530 38.05200904 -8.80242022 38.17088215 -2.42918953 -34.10996224
3637730000 -1.97523223 -25.36916561 -8.79072293 38.11299813 -8.79608730 38.14884854 -2.43534316 -34.16257698
3642720000 -1.97159806 -25.46583548 -8.79204909 38.01905255 -8.79010622 38.05221650 -2.42805301 -34.12845751
3647710000 -1.96775071 -25.57407539 -8.77668336 38.05253420 -8.78157585 38.01625772 -2.43557122 -34.17503906
3652700000 -1.96840685 -25.60600107 -8.76920010 38.00816839 -8.76106394 37.96120689 -2.43529839 -34.23381636
3657690000 -1.96630479 -25.64967286 -8.75943322 38.00722906 -8.77194618 37.90454206 -2.43640034 -34.25593618
3662680000 -1.96780561 -25.75256261 -8.76183372 37.96476989 -8.76984096 37.95137191 -2.43715839 -34.25973691
3667670000 -1.96524331 -25.73482662 -8.76101819 37.85551059 -8.75795344 37.83427604 -2.43406153 -34.24795297
3672660000 -1.95637526 -25.76517416 -8.75504686 37.80015698 -8.75138078 37.85455916 -2.43908348 -34.27500062
3677650000 -1.95485573 -25.82661031 -8.74228370 37.70580295 -8.75347641 37.78037664 -2.45277851 -34.33149445
3682640000 -1.95350983 -25.77588835 -8.74828339 37.75354461 -8.74553125 37.77773684 -2.45148111 -34.29087568
3687630000 -1.95446650 -25.83680579 -8.73969273 37.63693977 -8.73259149 37.70053005 -2.45866107 -34.40239782
3692620000 -1.96111928 -25.87423362 -8.73822799 37.61805474 -8.75284682 37.59981633 -2.46085382 -34.33654499
3697610000 -1.95667353 -25.87204725 -8.73573453 37.65858183 -8.73681371 37.61589704 -2.47494362 -34.40920451
3702600000 -1.96814810 -25.78623871 -8.72688060 37.70290547 -8.73460085 37.62669247 -2.46600456 -34.36658362
3707590000 -1.97320747 -25.78377925 -8.71591361 37.64757398 -8.74170074 37.61575441 -2.47303645 -34.49062332
3712580000 -1.97593825 -25.74263799 -8.70984452 37.54629509 -8.71486849 37.59264210 -2.48272935 -34.57191283
3717570000 -1.98625721 -25.84683288 -8.71834672 37.46310581 -8.73121078 37.52279093 -2.48386234 -34.48039689
3722560000 -1.99044344 -25.81626573 -8.70579891 37.47456537 -8.71765867 37.58535084 -2.48706643 -34.52830730
3727550000 -1.99845063 -25.78475246 -8.71252241 37.55873051 -8.70040908 37.57916069 -2.48525410 -34.54874496
3732540000 -2.01291879 -25.88895437 -8.71525365 37.48151027 -8.71478405 37.45862237 -2.49250916 -34.63047964
3737530000 -2.00439908 -25.97616261 -8.69214417 37.46869518 -8.68548633 37.53778940 -2.48834355 -34.68688234
3742520000 -2.01087032 -26.01381960 -8.68543020 37.38864961 -8.69407482 37.48866677 -2.50728680 -34.61727964
3747510000 -2.02679963 -26.06299890 -8.68572590 37.41468152 -8.67661207 37.39261457 -2.49207483 -34.67634680
3752500000 -2.01943897 -26.10415359 -8.66806551 37.41558750 -8.66976064 37.34951167 -2.49055420 -34.74025165
3757490000 -2.01869165 -26.17095633 -8.66274049 37.31649117 -8.67349984 37.32081080 -2.50717037 -34.76937493
3762480000 -2.01431750 -26.19617573 -8.65984018 37.30552655 -8.67042004 37.26056429 -2.49836111 -34.78164317
3767470000 -2.01698410 -26.27011291 -8.65830740 37.24162156 -8.64609793 37.18595103 -2.50291814 -34.80047043
3772460000 -2.00843952 -26.34845661 -8.65702703 37.18419383 -8.63751674 37.19890455 -2.50161258 -34.78837521
3777450000 -1.99773524 -26.39149357 -8.64389835 37.14340596 -8.65046081 37.11224022 -2.50984409 -34.84812566
3782440000 -2.01069715 -26.39382609 -8.62910292 37.11812021 -8.62568852 37.10844044 -2.51429820 -34.82209774
3787430000 -2.00213166 -26.39089370 -8.64107293 37.11572988 -8.63008966 37.12942117 -2.51890808 -34.84375098
3792420000 -2.01075106 -26.39339632 -8.63655508 36.97986757 -8.63910286 36.97907666 -2.51917910 -34.93867789
3797410000 -2.01218986 -26.42100049 -8.63484750 36.98498695 -8.62528314 36.93065867 -2.52542333 -34.90704420
3802400000 -2.00841625 -26.44205614 -8.61137838 36.89969529 -8.63027912 36.95854700 -2.52695279 -34.91757533
3807390000 -2.01411293 -26.45057195 -8.61718713 37.00196316 -8.61779510 36.84572620 -2.53045085 -35.04020073
3812380000 -2.02365634 -26.42680029 -8.61973790 36.91329957 -8.62613769 36.86277018 -2.54163756 -35.02134110
3817370000 -2.03053631 -26.39727894 -8.62374372 36.87022464 -8.62042703 36.88315027 -2.54081320 -35.00304779
3822360000 -2.03869278 -26.39224656 -8.62821656 36.82355104 -8.61170996 36.95979307 -2.54470499 -35.01883441
3827350000 -2.04530769 -26.42485433 -8.59974183 36.83438541 -8.61141082 36.82546185 -2.56111054 -35.12245479
3832340000 -2.04590813 -26.48441149 -8.58935442 36.86506279 -8.59024719 36.83862520 -2.55142620 -35.13668296
3837330000 -2.06223409 -26.42647052 -8.59341167 36.85645264 -8.59724817 36.76243545 -2.55128066 -35.13630278
3842320000 -2.05994477 -26.44141211 -8.58907126 36.76616182 -8.58409269 36.83934735 -2.56608712 -35.20272219
3847310000 -2.06335846 -26.44121745 -8.58595711 36.81993226 -8.58444230 36.75857466 -2.55415093 -35.19234279
3852300000 -2.07623263 -26.58207855 -8.57218312 36.82518030 -8.57170290 36.73625391 -2.55271090 -35.23580732
3857290000 -2.07493218 -26.58716071 -8.57650414 36.67844947 -8.55605727 36.75362718 -2.56620301 -35.19708143
3862280000 -2.07280207 -26.69997117 -8.56536440 36.65123346 -8.56213005 36.65288965 -2.57084739 -35.26760856
3867270000 -2.07526242 -26.72107388 -8.55462305 36.59545659 -8.57324319 36.64679990 -2.58060641 -35.27407155
3872260000 -2.06480683 -26.78735250 -8.55858070 36.56282390 -8.54811182 36.53328067 -2.56385368 -35.34804525
3877250000 -2.06099655 -26.85190798 -8.54982077 36.52678287 -8.55433100 36.54187712 -2.57831556 -35.31395373
3882240000 -2.06629105 -26.87701138 -8.54809147 36.51349697 -8.54411521 36.52308863 -2.57905587 -35.30138610
3887230000 -2.06427088 -26.96985201 -8.55122210 36.48294125 -8.53300963 36.49137940 -2.57231158 -35.40744109
3892220000 -2.05886153 -26.86211509 -8.53822965 36.43592470 -8.53649605 36.41579501 -2.57424781 -35.42200197
3897210000 -2.07162392 -26.88684680 -8.54490275 36.43040990 -8.53628746 36.31939833 -2.58382569 -35.44747465
3902200000 -2.06178227 -26.96597340 -8.52334529 36.38705289 -8.53844708 36.31829598 -2.58821735 -35.48007671
3907190000 -2.06472145 -26.96595091 -8.53852318 36.25203362 -8.53960032 36.36390971 -2.59694833 -35.44549651
3912180000 -2.06613343 -26.95951482 -8.52862158 36.29106066 -8.52621236 36.25364166 -2.58395525 -35.48524534
3917170000 -2.06952078 -26.89454289 -8.52150899 36.26017276 -8.52340313 36.19796472 -2.59574876 -35.52178291
3922160000 -2.07965532 -26.91882816 -8.50742909 36.20814488 -8.50935068 36.21471616 -2.59698400 -35.52566591
3927150000 -2.07644706 -26.90069023 -8.50807639 36.23144009 -8.51223609 36.22684551 -2.60037103 -35.55628968
3932140000 -2.08653845 -26.87032283 -8.50115086 36.24616117 -8.50978087 36.17822323 -2.61088221 -35.60856980
3937130000 -2.09808012 -26.92271443 -8.49658462 36.14233170 -8.49489393 36.18885148 -2.61119109 -35.58266133
3942120000 -2.10029626 -26.91672573 -8.49946707 36.21426247 -8.49938977 36.11932250 -2.62223790 -35.65565384
3947110000 -2.10637462 -26.92941235 -8.48309133 36.15256070 -8.49049443 36.07079854 -2.61549417 -35.71397491
3952100000 -2.10900100 -26.92249723 -8.48842811 36.06035612 -8.49698186 36.13612906 -2.63470359 -35.71536734
3957090000 -2.11620478 -27.04794918 -8.49041805 36.09420584 -8.48568453 36.11453985 -2.63581873 -35.66659250
3962080000 -2.11787797 -27.11420680 -8.47086009 36.01443880 -8.47357661 36.13009544 -2.63001538 -35.70358378
3967070000 -2.12526608 -27.15243825 -8.48785493 36.02505777 -8.47553731 35.94573393 -2.62815710 -35.84981669
3972060000 -2.11414763 -27.14287006 -8.47200861 35.99446446 -8.46782308 35.91865520 -2.63889623 -35.83022158
3977050000 -2.11755214 -27.23845292 -8.46294030 35.93268446 -8.45813901 35.87225566 -2.62997614 -35.80249048
3982040000 -2.11284779 -27.22261753 -8.44534484 35.86127930 -8.47055327 35.85803865 -2.65223094 -35.91610092
3987030000 -2.10728355 -27.24321094 -8.45200392 35.77567704 -8.45092020 35.89535256 -2.64726801 -35.83303773
3992020000 -2.11123342 -27.32553931 -8.44233336 35.80599847 -8.45770762 35.79699257 -2.63677891 -35.88169513
3997010000 -2.11731855 -27.33930788 -8.44647588 35.70336527 -8.44592073 35.70951704 -2.64214565 -35.96059131
4002000000 -2.10147058 -27.32745282 -8.44712481 35.68229501 -8.44877590 35.67634161 -2.65897057 -35.93456349
4006990000 -2.11192814 -27.39782697 -8.43051931 35.62016649 -8.43909155 35.71885822 -2.64242516 -35.98307348
4011980000 -2.10638045 -27.36181872 -8.42904203 35.65328269 -8.44124011 35.62613815 -2.65435212 -35.98237988
4016970000 -2.11226374 -27.38107038 -8.42767714 35.58110095 -8.42957159 35.49174083 -2.64759306 -36.06419648
4021960000 -2.11188883 -27.31468979 -8.41569761 35.58981359 -8.42184107 35.59909275 -2.66097212 -36.10188988
4026950000 -2.12233600 -27.24026752 -8.43138756 35.61425026 -8.43238654 35.56610795 -2.66758353 -36.12894734
4031940000 -2.12256987 -27.23982704 -8.41639413 35.57333230 -8.42168794 35.55695264 -2.66078503 -36.10324949
4036930000 -2.13065164 -27.32161529 -8.42638494 35.55095959 -8.40621172 35.55613356 -2.66982615 -36.18952684
4041920000 -2.13266945 -27.23964523 -8.40357543 35.51809223 -8.40870510 35.51883380 -2.66550603 -36.19209320
4046910000 -2.14544088 -27.24281287 -8.41116095 35.51043690 -8.40817770 35.54932889 -2.66929877 -36.14068481
4051900000 -2.15963660 -27.31630480 -8.41028832 35.46323232 -8.40853782 35.52937030 -2.69274891 -36.14611561
4056890000 -2.16199999 -27.35742118 -8.38231695 35.48600790 -8.41236878 35.43620159 -2.69102245 -36.25164632
4061880000 -2.15843720 -27.33058542 -8.38135150 35.47933246 -8.38994663 35.41153078 -2.68201983 -36.22521948
4066870000 -2.16347461 -27.40148813 -8.39622976 35.37575716 -8.40041104 35.39596204 -2.69361459 -36.29031855
4071860000 -2.16673516 -27.53722326 -8.38740625 35.32791393 -8.38774695 35.36876308 -2.70259632 -36.37268526
4076850000 -2.16427907 -27.46993542 -8.38461288 35.42524326 -8.38793130 35.36401012 -2.69504483 -36.29563599
4081840000 -2.16275518 -27.57682676 -8.37198349 35.29677085 -8.37276871 35.30540140 -2.69416202 -36.30857495
4086830000 -2.16659863 -27.63727237 -8.36588126 35.23994218 -8.37357469 35.20822503 -2.69056799 -36.36724122
4091820000 -2.16238403 -27.64016925 -8.35663150 35.28821416 -8.37324730 35.26401787 -2.70947567 -36.37201305
4096810000 -2.15106327 -27.71729008 -8.34989596 35.16977960 -8.35041037 35.14939879 -2.69989019 -36.34801046
4101800000 -2.15518059 -27.70626936 -8.36118115 35.14762587 -8.35947031 35.24523719 -2.70896028 -36.37909939
4106790000 -2.16272463 -27.69972432 -8.34374590 35.18353639 -8.36585041 35.06689247 -2.71224137 -36.45571429
4111780000 -2.14884188 -27.74295386 -8.34144803 35.06703093 -8.33652554 35.05572864 -2.70141326 -36.54027098
4116770000 -2.15759475 -27.78912910 -8.34713647 35.12635846 -8.36030916 35.02614378 -2.70718313 -36.46018277
4121760000 -2.15598434 -27.65947767 -8.35103055 34.94788087 -8.34347929 34.94174034 -2.70717218 -36.56577166
4126750000 -2.15994083 -27.70860638 -8.33596506 34.88847946 -8.34879351 34.98536359 -2.72288442 -36.58004171
4131740000 -2.15273855 -27.68514045 -8.33760113 34.92196905 -8.32986801 35.03147235 -2.72403954 -36.57087141
4136730000 -2.15913734 -27.64826999 -8.32959701 34.88956176 -8.33698305 34.87520500 -2.72781374 -36.68437693
4141720000 -2.17170862 -27.64952016 -8.34108995 34.80136883 -8.34433219 34.96567430 -2.73385493 -36.62583166
4146710000 -2.17671861 -27.63492377 -8.32858981 34.93986778 -8.32798877 34.98057374 -2.73716658 -36.59244842
4151700000 -2.18338650 -27.65349975 -8.31083658 34.91731344 -8.31474200 34.87636583 -2.72519569 -36.72122978
4156690000 -2.19181243 -27.60046567 -8.31783144 34.91300861 -8.31473393 34.89511975 -2.72835465 -36.74736258
4161680000 -2.20881276 -27.69931039 -8.30920558 34.83590489 -8.31755212 34.71945207 -2.73593213 -36.75343119
4166670000 -2.20216652 -27.75988059 -8.30058236 34.74139323 -8.31054040 34.79193461 -2.73816282 -36.74996310
4171660000 -2.21599675 -27.78278732 -8.29324400 34.72346019 -8.30464713 34.70765678 -2.74705000 -36.79994046
4176650000 -2.19748988 -27.79328124 -8.29463598 34.80306906 -8.29061047 34.75042255 -2.75442122 -36.84718591
4181640000 -2.20819047 -27.87341309 -8.29557544 34.64501562 -8.29600936 34.74744392 -2.75061325 -36.84191568
4186630000 -2.20918192 -27.89491756 -8.29596693 34.66041151 -8.28340360 34.60896273 -2.76231333 -36.92035217
4191620000 -2.21466358 -27.95397703 -8.29638603 34.66627891 -8.27316578 34.56311572 -2.75914523 -36.88207617
4196610000 -2.19978588 -27.97951182 -8.28048415 34.72362708 -8.27431486 34.62939276 -2.75175648 -36.91024831
4201600000 -2.21436755 -28.02842889 -8.28600914 34.56515415 -8.28065104 34.61838811 -2.76405193 -36.92795710
4206590000 -2.20291102 -28.03379115 -8.27679241 34.52813850 -8.28536687 34.43330906 -2.77099906 -37.03906620
4211580000 -2.19457512 -28.02712677 -8.26917199 34.51580303 -8.28193786 34.45047284 -2.77860234 -37.07550381
4216570000 -2.19735025 -28.09185314 -8.26237564 34.32097041 -8.27237758 34.38263316 -2.77022293 -37.04779719
4221560000 -2.19253584 -28.02080208 -8.26179361 34.48533135 -8.25801229 34.40568302 -2.76902701 -37.08462363
4226550000 -2.19447527 -28.01947203 -8.27435666 34.40880108 -8.27670276 34.39953568 -2.79617426 -37.02679634
4231540000 -2.20990364 -28.02344845 -8.26943354 34.38189780 -8.27102862 34.50131829 -2.78416240 -37.05681211
4236530000 -2.20637542 -27.98026238 -8.26397550 34.36406272 -8.24917123 34.35252384 -2.78698969 -37.06277288
4241520000 -2.21659301 -27.91886481 -8.25119917 34.27749917 -8.25195161 34.25989440 -2.78984643 -37.14658806
4246510000 -2.21191708 -27.98574291 -8.27124206 34.23660574 -8.27096352 34.34698118 -2.79714738 -37.23006403
4251500000 -2.22183649 -27.91824723 -8.25084217 34.29785332 -8.25314814 34.31833918 -2.79395591 -37.21444532
4256490000 -2.22834892 -27.95239288 -8.24173353 34.33144917 -8.23695941 34.28847273 -2.78719885 -37.22223679
4261480000 -2.24332904 -27.96499857 -8.23260852 34.30310257 -8.22919195 34.29137196 -2.79446158 -37.21453099
4266470000 -2.25290980 -27.95176294 -8.22743267 34.22958769 -8.23618068 34.14344120 -2.79649592 -37.28226792
4271460000 -2.24586519 -27.96200087 -8.22036124 34.25644241 -8.22328987 34.32786738 -2.80436497 -37.25271678
4276450000 -2.25301172 -28.00082980 -8.21385800 34.20837075 -8.22443844 34.18267658 -2.81050668 -37.29797055
4281440000 -2.25342340 -28.08528709 -8.20303613 34.17507562 -8.21992172 34.18953865 -2.80030336 -37.41766747
4286430000 -2.26717766 -28.17594657 -8.21236719 34.15527466 -8.19721058 34.10649969 -2.79858305 -37.34098541
4291420000 -2.25601452 -28.20285870 -8.21096375 33.98341630 -8.20906358 34.04504313 -2.80750571 -37.39142521
4296410000 -2.25375675 -28.21161269 -8.19854189 33.98843747 -8.19836207 34.13940095 -2.80599901 -37.45325611
4301400000 -2.25179893 -28.19336733 -8.18923913 34.13300150 -8.19483034 34.05758531 -2.81118363 -37.43779139
4306390000 -2.24998727 -28.28145879 -8.18233722 34.01112296 -8.18842163 34.00886326 -2.81591793 -37.52792730
4311380000 -2.25471036 -28.25862734 -8.20833032 33.96540287 -8.20271971 33.95000967 -2.82430885 -37.42573791
4316370000 -2.24867147 -28.27773569 -8.19985721 33.94710178 -8.19074148 33.89397480 -2.83611378 -37.53449058
4321360000 -2.24483451 -28.30734845 -8.18370409 33.96237158 -8.19758450 33.92716146 -2.83056111 -37.51703206
4326350000 -2.24525261 -28.27589281 -8.18900439 33.87752100 -8.19057121 33.90438470 -2.83568970 -37.55263050
4331340000 -2.24631204 -28.29531856 -8.16520623 33.82022177 -8.19510370 33.95509467 -2.83429332 -37.54161146
4336330000 -2.25863120 -28.26487251 -8.17999951 33.83025568 -8.18003292 33.82902153 -2.83340224 -37.64812486
4341320000 -2.24648888 -28.24584469 -8.18325356 33.73054639 -8.16580868 33.71511114 -2.83951002 -37.68018025
4346310000 -2.25104935 -28.18243034 -8.18188824 33.81572850 -8.17426879 33.78934343 -2.84641040 -37.66025723
4351300000 -2.26917653 -28.20761407 -8.17959576 33.79602178 -8.16960066 33.83679117 -2.84832148 -37.73197221
4356290000 -2.26840872 -28.26173255 -8.17555679 33.71897263 -8.17590678 33.66354729 -2.84510173 -37.71290338
4361280000 -2.27740086 -28.24985323 -8.16898799 33.64269153 -8.15887650 33.62005655 -2.85235286 -37.75310535
4366270000 -2.28014018 -28.20789947 -8.15670586 33.72246316 -8.16239084 33.65311173 -2.86281834 -37.80220208
4371260000 -2.28620981 -28.25528422 -8.16143654 33.65640746 -8.16163683 33.72986319 -2.84688884 -37.82462286
4376250000 -2.28968258 -28.28389524 -8.14300567 33.56460720 -8.15131522 33.61402060 -2.86226386 -37.88558181
4381240000 -2.29040676 -28.26303969 -8.14082112 33.69065995 -8.13973427 33.64184480 -2.86172734 -37.83884240
4386230000 -2.29973466 -28.34530109 -8.14210370 33.61077232 -8.14531799 33.64113724 -2.86696315 -37.83106907
4391220000 -2.29575226 -28.37851716 -8.14881853 33.46207487 -8.13362647 33.51548465 -2.86838813 -37.81454478
4396210000 -2.31032448 -28.45776760 -8.13255821 33.56227832 -8.12633718 33.52354056 -2.86954897 -37.88806182
4401200000 -2.30668387 -28.46919180 -8.12570213 33.47081617 -8.13341282 33.55069593 -2.86786782 -37.84170703
4406190000 -2.30136082 -28.51386022 -8.11472497 33.60350618 -8.11842320 33.47906171 -2.87872339 -37.86330143
4411180000 -2.29569972 -28.55396196 -8.11524866 33.45646149 -8.11005152 33.45516873 -2.88081335 -38.00049702
4416170000 -2.29796383 -28.56706852 -8.11588227 33.39547776 -8.12487207 33.45133746 -2.88643521 -37.89913865
4421160000 -2.29787310 -28.56715981 -8.11158766 33.45076727 -8.10970752 33.40773200 -2.88337083 -37.96985507
4426150000 -2.30150691 -28.49682773 -8.11354014 33.42692072 -8.13222755 33.39779678 -2.89885280 -38.06375975
4431140000 -2.29719812 -28.57383643 -8.09621476 33.29191541 -8.11075297 33.28491641 -2.90748978 -38.09020958
4436130000 -2.29606792 -28.55924970 -8.09893625 33.30815357 -8.09675792 33.30471972 -2.89874059 -38.08798928
4441120000 -2.29586090 -28.52042255 -8.10096249 33.28821263 -8.11076670 33.22129671 -2.90144834 -38.11683717
4446110000 -2.29395306 -28.53604925 -8.09636873 33.31085474 -8.09537488 33.14852563 -2.90289223 -38.17487170
4451100000 -2.29766553 -28.51605254 -8.09092554 33.18770109 -8.10307357 33.26044390 -2.91658388 -38.13013655
4456090000 -2.28967639 -28.50626717 -8.09179987 33.24462866 -8.09320097 33.14608445 -2.91464944 -38.21200203
4461080000 -2.31182556 -28.47217223 -8.08884720 33.18767957 -8.07220088 33.20404755 -2.90453854 -38.23042670
4466070000 -2.31247268 -28.45845911 -8.08670604 33.30382640 -8.09305797 33.27503503 -2.91565164 -38.26114444
4471060000 -2.31795631 -28.53434269 -8.08566550 33.18501425 -8.07108417 33.20870510 -2.92294425 -38.21876736
4476050000 -2.32366666 -28.48252360 -8.07730114 33.13584257 -8.06781103 33.14987076 -2.92580540 -38.30997693
4481040000 -2.33171531 -28.56950639 -8.06072046 33.05900858 -8.07532475 33.08996432 -2.92520963 -38.27598019
4486030000 -2.33898893 -28.51953615 -8.04376546 33.13251853 -8.07602226 33.17390837 -2.92919146 -38.29899123
4491020000 -2.34704499 -28.51824028 -8.07350544 33.07987046 -8.07157966 33.09094283 -2.93449326 -38.29972206
4496010000 -2.34524861 -28.69291826 -8.05874705 33.10898014 -8.05987845 33.04791920 -2.93519561 -38.29673414
4501000000 -2.34401652 -28.68358784 -8.05360869 33.07713484 -8.05624643 33.11809615 -2.92962168 -38.35046641
4505990000 -2.34370603 -28.78118078 -8.04600419 32.97601855 -8.04861849 32.99681761 -2.93631886 -38.36231629
4510980000 -2.34801906 -28.78806778 -8.05060685 32.99341499 -8.03972623 32.97857821 -2.92612005 -38.38042259
4515970000 -2.35035636 -28.81801018 -8.04486580 32.89755817 -8.04951528 32.90273508 -2.94491184 -38.41153711
4520960000 -2.34445191 -28.82046057 -8.03997806 32.94826663 -8.03570723 32.86992566 -2.94310314 -38.42073481
4525950000 -2.33181205 -28.81993970 -8.03922406 32.92609302 -8.03846403 32.93527879 -2.95276227 -38.44509984
4530940000 -2.33374186 -28.82475311 -8.01641051 32.82781630 -8.02616695 32.90612147 -2.94971120 -38.47691655
4535930000 -2.32767087 -28.89143921 -8.00916926 32.74424141 -8.02776812 32.81769254 -2.96192091 -38.50459506
4540920000 -2.33153388 -28.82423183 -8.02177286 32.78030028 -8.01336284 32.80077985 -2.96020856 -38.50450760
4545910000 -2.33875455 -28.81530552 -8.02979101 32.75785801 -8.02436711 32.75496271 -2.97207684 -38.54519796
4550900000 -2.33667598 -28.87253983 -8.01688576 32.69934591 -8.01817577 32.77921664 -2.96622820 -38.60999251
4555890000 -2.34564204 -28.78145497 -8.02000893 32.69726716 -8.01508744 32.70634326 -2.97289359 -38.66585082
4560880000 -2.34521601 -28.76672146 -8.00147149 32.67867244 -8.01481156 32.75000556 -2.97266056 -38.64200830
4565870000 -2.35863178 -28.79753654 -8.01386871 32.74906753 -8.01391862 32.58610557 -2.97390968 -38.70723441
4570860000 -2.35729563 -28.79457655 -8.01336931 32.61524651 -8.00671825 32.73477672 -2.97554740 -38.70100280
4575850000 -2.35748361 -28.78866089 -7.99603010 32.60550524 -8.00317709 32.65584416 -2.98499532 -38.73165999
4580840000 -2.37475646 -28.79526130 -7.99406976 32.60736730 -7.99587061 32.61612436 -2.97846681 -38.71732699
4585830000 -2.37822039 -28.79507738 -7.98659326 32.61386431 -7.99375944 32.59956728 -2.98068757 -38.79210811
4590820000 -2.38085499 -28.86843775 -7.97918802 32.59053233 -7.98746927 32.65037862 -2.98455742 -38.79750425
4595810000 -2.38568984 -28.88696063 -7.99583358 32.50914311 -8.00176540 32.54103237 -2.99300232 -38.81103094
4600800000 -2.38637696 -28.89714147 -7.98186840 32.53452690 -7.99025995 32.56120931 -2.99022619 -38.80016796
4605790000 -2.38948903 -28.93163169 -7.98359056 32.53807679 -7.97673993 32.55171787 -2.99857186 -38.85991668
4610780000 -2.39264684 -28.96373434 -7.97112330 32.51282966 -7.98292677 32.47805276 -3.00252699 -38.84216653
4615770000 -2.39673394 -29.06722042 -7.96732150 32.55538324 -7.97230369 32.46255419 -3.00238654 -38.81479539
4620760000 -2.38877218 -29.09770693 -7.96305904 32.51964674 -7.97118490 32.44252475 -3.00778271 -38.87797854
4625750000 -2.39281218 -29.10346399 -7.96622639 32.48019124 -7.96914605 32.40065489 -2.99826662 -38.90558845
4630740000 -2.38467963 -29.10426056 -7.94218181 32.35700536 -7.95644730 32.37652568 -3.00293810 -38.87925812
4635730000 -2.38817392 -29.14229630 -7.94723311 32.42782460 -7.95461392 32.37486881 -3.00456294 -38.87891478
4640720000 -2.38366241 -29.14916534 -7.94156012 32.31156664 -7.93967972 32.27265060 -3.01002868 -38.93567624
4645710000 -2.38892792 -29.17870199 -7.94372657 32.24601884 -7.94152560 32.25874886 -3.01558135 -38.94366429
4650700000 -2.38300998 -29.15576951 -7.94097833 32.18677996 -7.93649865 32.21035920 -3.02601865 -39.02305978
4655690000 -2.38745690 -29.13414030 -7.94210201 32.27677970 -7.94833772 32.20969481 -3.02608505 -39.00982313
4660680000 -2.39652939 -29.11259574 -7.94327172 32.15489380 -7.94669679 32.12054343 -3.03235425 -39.06274346
4665670000 -2.38551606 -29.07718001 -7.93229149 32.09371581 -7.94028227 32.20580922 -3.03180261 -39.11239865
4670660000 -2.39561237 -29.07402658 -7.94287275 32.22148783 -7.93266761 32.11549197 -3.01509807 -39.13819584
4675650000 -2.39901758 -29.10729894 -7.93560516 32.15089272 -7.92360989 32.09982803 -3.04072746 -39.20343977
4680640000 -2.40780348 -29.12349979 -7.92180444 32.14406150 -7.92519805 32.03183795 -3.04229152 -39.24969003
4685630000 -2.41074080 -29.07384860 -7.92047205 32.12017645 -7.91654940 32.09979271 -3.05204025 -39.20321303
4690620000 -2.42081311 -29.11184298 -7.92392043 32.04924942 -7.92395409 32.10002485 -3.04331736 -39.19934218
4695610000 -2.42254719 -29.10825468 -7.90613034 32.05341487 -7.91547119 32.01275740 -3.04790461 -39.21739118
4700600000 -2.43402574 -29.16380238 -7.91719170 32.05085800 -7.90895030 32.03506488 -3.03341985 -39.33405664
4705590000 -2.43375038 -29.22340451 -7.90706722 32.03896310 -7.91403988 32.01013419 -3.05008931 -39.24777817
4710580000 -2.43200428 -29.25633280 -7.90181144 32.02090285 -7.90224328 31.99828130 -3.03995436 -39.27560024
4715570000 -2.43593555 -29.29142309 -7.89530755 32.05329721 -7.90260823 31.97961917 -3.04850258 -39.19792688
4720560000 -2.43296697 -29.33869060 -7.88650484 31.98242078 -7.89552963 31.94123294 -3.04454614 -39.31486936
4725550000 -2.44414273 -29.40701184 -7.87849113 31.91040143 -7.88305692 31.98541131 -3.04084444 -39.29545141
4730540000 -2.43486979 -29.45004224 -7.87449924 31.86133041 -7.89440578 31.87740173 -3.05565061 -39.33654947
4735530000 -2.43403609 -29.43846944 -7.88707797 31.78672942 -7.88265191 31.89315471 -3.05365505 -39.39867576
4740520000 -2.43340177 -29.46659719 -7.87943460 31.80079362 -7.88361121 31.76191917 -3.05497305 -39.35145788
4745510000 -2.43136916 -29.48693787 -7.87243990 31.87829851 -7.87106654 31.82831985 -3.06714174 -39.33730125
4750500000 -2.42910066 -29.55215221 -7.87939006 31.67805606 -7.87656863 31.79672977 -3.07929231 -39.38154143
4755490000 -2.43906224 -29.49547589 -7.87247304 31.66811929 -7.87244410 31.69355150 -3.06501065 -39.35657463
4760480000 -2.42950553 -29.49025662 -7.87754149 31.64001826 -7.87908222 31.61879913 -3.08450757 -39.44963584
4765470000 -2.44261366 -29.46356492 -7.86836542 31.71085494 -7.86814716 31.65904122 -3.08045669 -39.43789753
4770460000 -2.44133366 -29.48482026 -7.86223222 31.59052027 -7.86875579 31.63458095 -3.08868490 -39.52830546
4775450000 -2.44541249 -29.47413200 -7.86290145 31.61167828 -7.86010017 31.60917410 -3.08846408 -39.57019727
4780440000 -2.44211444 -29.42670729 -7.85948620 31.73553476 -7.86199849 31.62789801 -3.09432991 -39.57518140
4785430000 -2.45627298 -29.45874758 -7.84419745 31.63590568 -7.84797541 31.56597340 -3.09193797 -39.63844058
4790420000 -2.46283858 -29.48665813 -7.85105874 31.53941482 -7.84515132 31.59081449 -3.08185821 -39.61214835
4795410000 -2.46549010 -29.39158382 -7.83714431 31.56075260 -7.85610713 31.57795948 -3.09255200 -39.62604260
4800400000 -2.47331445 -29.44248595 -7.84353222 31.58160858 -7.84334140 31.56220992 -3.09179993 -39.58803943
4805390000 -2.48039236 -29.47121541 -7.84158644 31.52614238 -7.83231330 31.52710517 -3.09940855 -39.73724719
4810380000 -2.48281830 -29.56270893 -7.83402680 31.52830670 -7.83187767 31.41313266 -3.09671635 -39.68953017
4815370000 -2.48648321 -29.62875438 -7.82623852 31.49698396 -7.83099832 31.48590479 -3.09785869 -39.67502077
4820360000 -2.48605062 -29.66350045 -7.83120359 31.42901777 -7.83839727 31.43833869 -3.10995900 -39.66982467
4825350000 -2.48929068 -29.65183090 -7.81189885 31.37755921 -7.83194877 31.38006973 -3.09111054 -39.71524376
4830340000 -2.48436494 -29.68468342 -7.81567314 31.40937604 -7.82882914 31.40795147 -3.10577692 -39.71202045
4835330000 -2.48259828 -29.77552650 -7.81505263 31.34094131 -7.82262762 31.37728384 -3.11151388 -39.79649847
4840320000 -2.48993279 -29.77855401 -7.82170544 31.39249793 -7.81633318 31.32810743 -3.11050573 -39.72477628
4845310000 -2.48500604 -29.80944734 -7.80887000 31.31263373 -7.82367732 31.24551712 -3.12099934 -39.74345659
4850300000 -2.48647050 -29.79024107 -7.81135010 31.29223257 -7.80981727 31.28863042 -3.11962815 -39.79778020
4855290000 -2.47946609 -29.84565982 -7.80137432 31.19972912 -7.79715884 31.23923006 -3.12072263 -39.79612780
4860280000 -2.47940645 -29.87470695 -7.80586785 31.11128917 -7.81360093 31.14468466 -3.12396218 -39.87984896
4865270000 -2.48415287 -29.84266490 -7.79615137 31.14093878 -7.79041052 31.12187109 -3.11789435 -39.87625343
4870260000 -2.48780909 -29.81356896 -7.79919252 31.18465770 -7.79922564 31.08664598 -3.13520272 -39.91067348
4875250000 -2.49763300 -29.88544717 -7.79766222 31.05696993 -7.78986747 31.10738412 -3.13116248 -39.87228205
4880240000 -2.49505539 -29.79976818 -7.78752056 31.09076501 -7.80163138 31.16764065 -3.13890687 -39.94389073
4885230000 -2.49173989 -29.79210943 -7.78914290 31.11178823 -7.80123289 31.01911044 -3.14750168 -39.98805162
4890220000 -2.50692487 -29.79145605 -7.78854861 31.08969484 -7.78565496 30.99897531 -3.13890002 -40.03274942
4895210000 -2.51309089 -29.77955148 -7.79630233 30.96935294 -7.78419278 31.02840656 -3.14120570 -40.07745152
4900200000 -2.51118210 -29.85614990 -7.77928644 30.99004273 -7.78691709 30.99061792 -3.14079810 -40.04183637
4905190000 -2.51048376 -29.85644237 -7.78054330 31.03083511 -7.78644844 31.02906955 -3.14610828 -40.09829369
4910180000 -2.53255801 -29.86892492 -7.77817363 30.98020740 -7.78373066 30.93728581 -3.15463302 -40.11838444
4915170000 -2.53338246 -29.87334842 -7.76203322 30.98789199 -7.77114105 30.93470319 -3.14283050 -40.16214155
4920160000 -2.52545118 -29.95906899 -7.77035598 31.02243476 -7.76743425 30.89169297 -3.15446731 -40.12297716
4925150000 -2.53406340 -29.97167088 -7.75465210 30.94108048 -7.75979355 30.89127506 -3.14910540 -40.17658408
4930140000 -2.53945049 -30.05871015 -7.76001469 30.85370077 -7.77256481 30.84270610 -3.15525181 -40.15114777
4935130000 -2.53699078 -30.04412045 -7.75348046 30.78579142 -7.75010236 30.68827718 -3.15797385 -40.24367447
4940120000 -2.52766198 -30.07438181 -7.73501549 30.76917093 -7.74780029 30.79377077 -3.15442497 -40.22324030
4945110000 -2.54127919 -30.11923150 -7.74272240 30.81336428 -7.75037135 30.75536756 -3.15190667 -40.19784725
4950100000 -2.53905495 -30.12766274 -7.74525981 30.84441349 -7.74863534 30.72881492 -3.15838803 -40.25575302
4955090000 -2.54053448 -30.20004002 -7.74109393 30.74912355 -7.74380780 30.72883409 -3.17115301 -40.21433221
4960080000 -2.53323052 -30.23358641 -7.73858796 30.72392509 -7.74109682 30.65492425 -3.17419311 -40.30758450
4965070000 -2.53635200 -30.18390761 -7.73965536 30.70085861 -7.73236914 30.71414965 -3.17215924 -40.26801402
4970060000 -2.53534822 -30.26161786 -7.73474262 30.59765875 -7.73415416 30.62492792 -3.17474156 -40.29977997
4975050000 -2.53089763 -30.19962181 -7.72498827 30.65800412 -7.74671309 30.58973083 -3.18019349 -40.34021421
4980040000 -2.53178586 -30.23865886 -7.71936339 30.59566763 -7.72508434 30.61467305 -3.18139578 -40.42394021
4985030000 -2.54136955 -30.26146810 -7.72751533 30.59721859 -7.73251646 30.58675683 -3.18894598 -40.35692012
4990020000 -2.54274037 -30.18847088 -7.72466455 30.50047543 -7.73060850 30.50620931 -3.18777538 -40.42436204
4995010000 -2.54829081 -30.19675406 -7.71430790 30.55502139 -7.73297906 30.43419827 -3.18960745 -40.50986714
5000000000 -2.55529676 -30.21397644 -7.73048158 30.56152389 -7.71502504 30.44233140 -3.18821600 -40.43845256