! Forward-simulated: Re-embedded (raw/measured) — deemb_preext_vce3.5_ib160u.s2p
!   source_deembedded_file = deemb_preext_vce3.5_ib160u.s2p
!   Cpbe_fF = 22.0
!   Cpce_fF = 18.0
!   Cpbc_fF = 5.0
!   Lb_pH = 45.0
!   Lc_pH = 42.0
!   Le_pH = 6.0
!   Rpb_ohm = 0.0
!   Rpc_ohm = 0.0
!   Rpe_ohm = 0.0
# Hz S DB R 50
10000000 -0.07808532 -0.10495815 -4.71098153 173.74437492 -43.98532385 64.74954871 0.37813964 -1.49971662
14990000 -0.13116113 -0.12667392 -4.79489362 171.86904161 -43.60772108 71.20752112 0.37864927 -2.69130245
19980000 -0.14421701 -0.47396970 -4.92840144 169.97209769 -44.64563565 63.06339388 0.34015953 -3.31397941
24970000 -0.14889624 -0.40633080 -5.03334305 168.26564681 -43.51604932 71.49684081 0.32382352 -4.02612462
29960000 -0.12776543 -0.61296538 -5.19468058 166.32263567 -41.35013494 71.89296699 0.27687714 -4.95029907
34950000 -0.13372531 -0.60958939 -5.29364226 164.73039651 -40.37034114 72.70874125 0.22749873 -5.77411079
39940000 -0.13151888 -0.73204552 -5.38599974 162.92380674 -38.88973020 69.57692331 0.20729795 -6.50181573
44930000 -0.11621679 -0.80868308 -5.48022172 161.23028208 -38.34668232 72.69662180 0.14348785 -7.24681251
49920000 -0.13452685 -0.86168062 -5.60224706 159.65889203 -37.10538295 72.00669800 0.08549014 -7.93111684
54910000 -0.15637720 -1.02163628 -5.77226593 158.08677152 -36.27312246 73.16157552 0.01323466 -8.36159338
59900000 -0.13488528 -0.99670208 -5.83917474 156.48146778 -35.91632621 75.94353662 -0.04315152 -9.20044045
64890000 -0.14254498 -0.97386589 -5.98279175 154.94418825 -35.48999688 68.96535519 -0.15389614 -9.75114192
69880000 -0.12548333 -1.12509268 -6.07189900 153.66682015 -34.50742878 69.55983752 -0.17748777 -10.33013561
74870000 -0.16335657 -1.36436832 -6.20439998 152.14818335 -33.88288212 68.77617499 -0.23434296 -10.77079295
79860000 -0.17390684 -1.44385363 -6.33087511 150.83133594 -33.97421138 68.34392328 -0.30531732 -11.33455702
84850000 -0.19232045 -1.57689679 -6.46111759 149.59233891 -33.01492664 65.90148080 -0.38213346 -11.78269737
89840000 -0.18531231 -1.62771183 -6.58020761 148.07759980 -32.90985396 64.65280125 -0.45991540 -12.22195411
94830000 -0.19710304 -1.63740541 -6.71467583 147.08577675 -32.47789337 66.53812500 -0.51561627 -12.61459385
99820000 -0.21049671 -1.75239828 -6.84991460 145.72425429 -32.01645916 63.81316162 -0.58668288 -13.04843721
104810000 -0.21536956 -1.81622191 -6.98592560 144.58075352 -31.66976872 63.91829226 -0.66864782 -13.33398220
109800000 -0.23490789 -1.83948273 -7.10984179 143.47044769 -31.49856826 63.63120422 -0.73618035 -13.71463192
114790000 -0.22765988 -1.93026395 -7.21577559 142.35136011 -31.14309112 62.59959163 -0.80311578 -14.05822966
119780000 -0.22421711 -1.93240015 -7.35712056 141.38249855 -30.95539097 62.46499294 -0.86320609 -14.32066834
124770000 -0.22947610 -1.97946938 -7.47954301 140.28889834 -30.73086450 62.99872694 -0.93612346 -14.57767533
129760000 -0.22063082 -2.01610932 -7.58427034 139.35933292 -30.37465014 61.44340318 -0.98708729 -14.82556220
134750000 -0.23265571 -2.06825776 -7.72105430 138.45539480 -30.39030728 61.97521349 -1.06039193 -15.05888089
139740000 -0.22374337 -2.07814388 -7.82426719 137.54022521 -30.01376164 60.33914703 -1.11505043 -15.36535695
144730000 -0.23328336 -2.14251181 -7.93671554 136.62864336 -29.79417881 60.88673096 -1.16695838 -15.47741871
149720000 -0.22861396 -2.15794660 -8.05055419 135.75046823 -29.71555345 60.36750658 -1.23111265 -15.73415482
154710000 -0.22585465 -2.17847443 -8.15752220 134.81768284 -29.47159845 60.37572470 -1.30393863 -15.87341584
159700000 -0.23166243 -2.20957961 -8.28550477 134.00106470 -29.34235269 59.52406007 -1.35715645 -16.01292689
164690000 -0.23067262 -2.31293192 -8.36803689 133.14534963 -29.25569705 58.60420308 -1.42104165 -16.20335154
169680000 -0.23128123 -2.30889249 -8.50672514 132.37166224 -28.99490484 58.66317423 -1.47644153 -16.32544237
174670000 -0.24516633 -2.37768024 -8.60451513 131.60271200 -28.83591067 58.59298792 -1.54464481 -16.46919030
179660000 -0.24357388 -2.45105471 -8.69976067 130.88575327 -28.57494556 59.32019317 -1.59733997 -16.56931372
184650000 -0.25208992 -2.58427251 -8.78417507 130.22531406 -28.53197288 57.75613056 -1.64925010 -16.59139452
189640000 -0.25934898 -2.61874332 -8.89849945 129.34521361 -28.56232516 57.40167247 -1.70832139 -16.93484337
194630000 -0.26971297 -2.70245053 -9.02284318 128.77096474 -28.38524876 57.22382764 -1.77659574 -16.96814284
199620000 -0.30070234 -2.62991958 -9.16167509 127.75877636 -28.23211780 56.32615826 -1.82519461 -17.19857360
204610000 -0.31919696 -2.49011705 -9.26274705 127.43808838 -28.28291701 56.07330173 -1.89631451 -17.16667689
209600000 -0.25571977 -2.67255437 -9.30575087 126.68791655 -27.92720600 56.16621876 -1.96109445 -17.18180355
214590000 -0.29167385 -2.94437024 -9.45853676 126.01862443 -27.80751636 55.44298207 -2.00650994 -16.78370929
219580000 -0.30463502 -2.89896264 -9.52483417 125.10901508 -27.76222696 56.38609162 -1.97327654 -17.09840998
224570000 -0.31775266 -2.83398878 -9.65219329 124.50328456 -27.51774915 55.88084059 -2.02550488 -17.47003982
229560000 -0.30042305 -2.80026011 -9.73689912 124.07293919 -27.68874773 56.22360638 -2.08444637 -17.50869931
234550000 -0.29217591 -2.75639859 -9.84408611 123.62652546 -27.51325965 56.16732471 -2.13310328 -17.54542924
239540000 -0.28611357 -2.82736250 -9.90560217 123.26775947 -27.37657831 55.80731090 -2.16976064 -17.64307596
244530000 -0.28372807 -2.89102675 -9.99384936 122.59105867 -27.21344163 56.17791217 -2.22315353 -17.58871004
249520000 -0.26630213 -2.94346862 -10.06316832 122.16038504 -27.15963614 55.47169075 -2.25418095 -17.61498654
254510000 -0.27554708 -2.87774316 -10.18106564 121.75491351 -27.07584738 55.10781920 -2.26702465 -17.60706153
259500000 -0.25034039 -2.90069821 -10.21158096 121.11539521 -27.09701421 54.18911926 -2.33983022 -17.71873820
264490000 -0.27529233 -2.98216434 -10.32257306 120.45269279 -26.85810595 55.89924317 -2.36094568 -17.74495403
269480000 -0.23676580 -3.18829525 -10.38256760 119.83189625 -26.88418930 55.47540220 -2.41662036 -17.78618297
274470000 -0.27925452 -3.08402662 -10.48405624 119.45487629 -26.61493369 55.01847566 -2.43516914 -17.77950076
279460000 -0.26471840 -3.15843062 -10.54383591 119.08464445 -26.66629105 54.48207327 -2.47781536 -17.82031653
284450000 -0.26217522 -3.11299850 -10.64888733 118.39120696 -26.56178945 54.47679409 -2.51509310 -17.87798579
289440000 -0.26891365 -3.37175763 -10.74399556 117.99890744 -26.48033505 55.52024153 -2.54752330 -17.86392845
294430000 -0.29843390 -3.35791174 -10.82165295 117.42090363 -26.51812283 54.46202950 -2.59723363 -17.94801319
299420000 -0.30285678 -3.46510299 -10.85551817 116.80936053 -26.27692486 54.66438752 -2.65267992 -17.98808549
304410000 -0.29329797 -3.50533331 -10.94770135 116.69190415 -26.18267666 54.68249975 -2.66238747 -17.93018679
309400000 -0.30530894 -3.76765906 -10.98200519 115.94209512 -26.26157933 54.98815707 -2.71609289 -17.96634432
314390000 -0.34253647 -3.68877380 -11.08090495 115.44452342 -26.03646173 53.99713009 -2.73682617 -17.89882636
319380000 -0.35286745 -3.75782943 -11.14843006 115.10705701 -26.04769129 54.03968676 -2.77369635 -17.87823311
324370000 -0.33482211 -3.65789903 -11.18058971 114.66315248 -26.07053388 54.32490168 -2.75832185 -17.91404398
329360000 -0.34078649 -3.59631561 -11.30829363 114.19022115 -25.92777642 53.59945405 -2.78515181 -17.93511726
334350000 -0.34523908 -3.61616268 -11.37175781 113.83800896 -25.89706910 54.50922516 -2.82925861 -18.03019117
339340000 -0.32304521 -3.59870085 -11.45462616 113.41051195 -25.82124421 54.54865474 -2.83966106 -18.03301188
344330000 -0.31760224 -3.56144510 -11.52291109 113.23257596 -25.75402788 55.17882326 -2.88447454 -18.05543726
349320000 -0.29893798 -3.49487460 -11.57138543 112.89935336 -25.69976205 54.54511060 -2.89843921 -18.02382772
354310000 -0.31036460 -3.61116990 -11.60872516 112.77063427 -25.61149094 54.86554022 -2.91678036 -18.11455909
359300000 -0.27940165 -3.60129628 -11.66325716 112.22113922 -25.55839902 54.75465782 -2.93814944 -18.06076696
364290000 -0.27110080 -3.67065229 -11.71749036 111.68787448 -25.46046231 54.64491723 -2.97125718 -18.16422818
369280000 -0.27600849 -3.74290290 -11.75733732 111.57332864 -25.40997028 54.60556864 -2.98631721 -18.10862563
374270000 -0.25394720 -3.80143951 -11.80469760 110.98276306 -25.27445013 54.20622698 -3.01156126 -18.11810267
379260000 -0.25376153 -3.84998848 -11.86429183 110.64640119 -25.20705132 54.85500339 -3.03234588 -18.06017735
384250000 -0.26145004 -3.92996264 -11.91441293 110.27833349 -25.22879378 54.89943528 -3.06165435 -18.06852273
389240000 -0.27423568 -4.03074397 -11.96041474 109.76064942 -25.12684005 55.09209187 -3.09946898 -18.13419000
394230000 -0.27009834 -4.08681117 -11.99785853 109.53015199 -25.03558363 54.51545125 -3.11182350 -18.08224969
399220000 -0.27137424 -4.30044727 -12.08614609 108.94141640 -24.95506307 54.73052699 -3.12685478 -18.12294934
404210000 -0.27904759 -4.27949336 -12.13495043 108.82102099 -24.97610594 54.52279024 -3.15266718 -18.15712537
409200000 -0.29138021 -4.39690165 -12.16799434 108.26893201 -24.81445227 54.75556900 -3.18431016 -18.18604256
414190000 -0.29146300 -4.56394208 -12.22988636 107.94666712 -24.82176459 55.03013065 -3.19278995 -18.13212234
419180000 -0.31070357 -4.65548418 -12.25209271 107.61837668 -24.79363497 54.94387709 -3.22780617 -18.15884372
424170000 -0.31165864 -4.78278444 -12.33300256 107.16736957 -24.70432399 54.32594257 -3.24379792 -18.15386533
429160000 -0.35110887 -4.77613180 -12.40134238 106.79174789 -24.68247621 54.32211486 -3.25732798 -18.21571323
434150000 -0.35954727 -4.79081084 -12.46374372 106.55994618 -24.59441069 54.08171859 -3.26930318 -18.14913546
439140000 -0.36245900 -4.56235352 -12.49381582 106.19017502 -24.60852523 54.82373982 -3.29835062 -18.22870505
444130000 -0.35242965 -4.50035722 -12.56265560 105.89881192 -24.56335008 54.79635254 -3.30450759 -18.19197745
449120000 -0.34778643 -4.42630012 -12.60625401 105.79274960 -24.52852170 54.86521981 -3.32836618 -18.23082865
454110000 -0.33284438 -4.37562858 -12.65266921 105.63075880 -24.43331417 55.57396084 -3.33552468 -18.18310907
459100000 -0.29824695 -4.28760833 -12.67115230 105.46731662 -24.39079296 55.36956010 -3.34411417 -18.18460801
464090000 -0.28520751 -4.37197559 -12.69722000 105.14552805 -24.32955247 55.24719075 -3.35907002 -18.22627012
469080000 -0.26261464 -4.44441789 -12.72570913 104.86410560 -24.28496097 55.29570277 -3.37383107 -18.18773277
474070000 -0.25023679 -4.45319640 -12.74933132 104.51336653 -24.21095697 55.33777203 -3.38768919 -18.22661062
479060000 -0.23768690 -4.58121367 -12.77344344 103.98184685 -24.08824189 55.11282594 -3.39696483 -18.19775288
484050000 -0.23702919 -4.68177560 -12.80651562 103.88559830 -24.02956203 55.06850354 -3.42339755 -18.21816351
489040000 -0.24600704 -4.76228430 -12.86289909 103.36127153 -24.00653296 55.29447141 -3.43251241 -18.25872187
494030000 -0.24245722 -4.85724200 -12.87774279 103.20180869 -23.95270802 55.17050414 -3.44637339 -18.26560124
499020000 -0.25152544 -4.92504120 -12.91069277 102.92346845 -23.93099390 55.26808654 -3.47204900 -18.23185553
504010000 -0.24594553 -4.92252311 -12.92452691 102.43140558 -23.95120965 54.87864548 -3.49243868 -18.26699254
509000000 -0.24610443 -5.21009847 -13.00419862 101.98737086 -23.82347222 55.33285113 -3.50111704 -18.19625595
513990000 -0.26581638 -5.20823562 -13.04720467 102.05444324 -23.74814688 55.50897347 -3.52347737 -18.20058564
518980000 -0.27132730 -5.33394829 -13.06831015 101.45346948 -23.72374622 54.75570922 -3.54025855 -18.31065374
523970000 -0.27643025 -5.41515944 -13.09340014 101.12491430 -23.64073883 54.91120701 -3.55513946 -18.28100043
528960000 -0.30589493 -5.55954050 -13.09695400 101.01781662 -23.67469553 55.28479029 -3.56893474 -18.28466288
533950000 -0.32568231 -5.83350889 -13.18256444 100.51060145 -23.56305876 55.41667710 -3.59461247 -18.28083527
538940000 -0.34255454 -5.78017477 -13.19326457 100.48923994 -23.51737803 54.50628109 -3.58656533 -18.32571523
543930000 -0.38049184 -5.55720888 -13.28792728 100.23540432 -23.56650498 54.65698042 -3.62063911 -18.38412962
548920000 -0.38749672 -5.40180533 -13.30910976 100.02296606 -23.39633855 54.86869921 -3.61131989 -18.38264754
553910000 -0.36578728 -5.34446979 -13.34356988 99.76955046 -23.43987577 56.10546334 -3.63271789 -18.31326855
558900000 -0.34269638 -5.15113711 -13.35738756 99.68487047 -23.37119983 55.37271409 -3.64932877 -18.34151576
563890000 -0.32655510 -5.18530012 -13.39388651 99.51335789 -23.34273963 55.53793382 -3.64243418 -18.33846490
568880000 -0.28084101 -5.03445946 -13.38917485 99.36240056 -23.20336520 55.49018995 -3.65968178 -18.38420357
573870000 -0.24314112 -5.04638680 -13.45544431 99.16779673 -23.22550818 56.07383724 -3.68335920 -18.40215547
578860000 -0.26064311 -5.27652890 -13.42534143 98.81172248 -23.10909563 55.58125118 -3.67828579 -18.37921050
583850000 -0.22875464 -5.26052612 -13.44222217 98.72577142 -23.08907698 55.55479468 -3.69375954 -18.39981046
588840000 -0.21801635 -5.48907483 -13.45149332 98.28127473 -23.07601558 55.65944742 -3.71387504 -18.32501005
593830000 -0.21143751 -5.45230080 -13.47433802 98.03940549 -23.01923883 56.07761065 -3.73922101 -18.35894249
598820000 -0.22273436 -5.70498068 -13.52154007 97.79807109 -22.91493649 55.78394837 -3.73599740 -18.33928503
603810000 -0.22918543 -5.70052744 -13.51731607 97.50714003 -22.85752700 55.67866838 -3.74952036 -18.41607830
608800000 -0.23866785 -5.89335671 -13.55988251 97.03586427 -22.84905636 55.53309406 -3.77317710 -18.38678591
613790000 -0.23529871 -5.96076373 -13.59019832 96.84868342 -22.72392257 55.63231241 -3.77276292 -18.36343191
618780000 -0.25420319 -6.09998744 -13.56667612 96.54698138 -22.70656220 55.50946779 -3.77385990 -18.42206448
623770000 -0.25663114 -6.27523093 -13.60275393 96.45221300 -22.69577906 55.45041042 -3.80101840 -18.52435002
628760000 -0.26833875 -6.37377510 -13.64281105 95.94661799 -22.63318194 55.52924555 -3.81076206 -18.55451867
633750000 -0.28492835 -6.45904558 -13.68609653 95.72660142 -22.63206212 55.55295444 -3.81068379 -18.48935653
638740000 -0.30108590 -6.48128900 -13.73120459 95.48806606 -22.58061290 55.34191959 -3.81764994 -18.53564911
643730000 -0.32315686 -6.59500997 -13.74347626 95.26484712 -22.52998192 55.60603950 -3.82381108 -18.56408198
648720000 -0.34182270 -6.63948375 -13.75587542 94.99545886 -22.47367301 55.18295171 -3.82077670 -18.62465054
653710000 -0.37089925 -6.65122374 -13.81816930 94.77249358 -22.53639334 55.69660354 -3.84836289 -18.67805605
658700000 -0.38652434 -6.46979530 -13.83891230 94.63826921 -22.40368337 55.93214373 -3.84394240 -18.63364954
663690000 -0.38330060 -6.27579453 -13.87533743 94.57527370 -22.39690010 55.51082932 -3.85895108 -18.63175742
668680000 -0.36574585 -6.05002901 -13.87608124 94.51881495 -22.37697889 56.32574018 -3.87001986 -18.72528975
673670000 -0.34142747 -5.99278696 -13.90356296 94.27491336 -22.26580936 56.04542983 -3.86429863 -18.78538249
678660000 -0.30831500 -5.89338156 -13.88680831 94.26669016 -22.26226731 55.82255246 -3.87204167 -18.69151830
683650000 -0.27167735 -5.93173368 -13.88715578 94.07823264 -22.21017928 55.94507853 -3.88843627 -18.80658428
688640000 -0.25334602 -6.04043300 -13.87031821 93.76327012 -22.15456367 55.99382911 -3.89813647 -18.79295413
693630000 -0.24915485 -6.18482155 -13.93201607 93.57576774 -22.13086232 56.35880091 -3.90774763 -18.70564413
698620000 -0.23327294 -6.15006232 -13.90846337 93.35815138 -22.04642049 55.90344448 -3.91366453 -18.77969400
703610000 -0.22439688 -6.32388728 -13.93109931 92.96947683 -22.01577094 56.39743876 -3.93736586 -18.79442243
708600000 -0.22407463 -6.44523513 -13.94436718 92.83970022 -21.95726160 55.64937073 -3.93474423 -18.81350608
713590000 -0.23160267 -6.63883230 -13.94152542 92.39630501 -21.93132388 56.12017957 -3.94683376 -18.79116437
718580000 -0.23482510 -6.78159172 -13.96611838 92.10643691 -21.87584433 55.72173631 -3.95910211 -18.86547691
723570000 -0.23782520 -6.86983930 -13.99177655 91.94679442 -21.84664730 55.86976412 -3.98155051 -18.88620414
728560000 -0.24404802 -7.01769407 -14.00440602 91.67643379 -21.77506005 55.89954535 -3.97652728 -18.88443314
733550000 -0.25627039 -7.16364947 -14.02350462 91.40632903 -21.78767481 55.87938261 -3.98758107 -18.90511713
738540000 -0.28745102 -7.23243684 -14.03331224 91.16406095 -21.74899614 55.82308169 -4.00661347 -18.97114581
743530000 -0.29927460 -7.37776330 -14.06766363 90.98618273 -21.71256272 56.29335546 -4.00972212 -18.99395936
748520000 -0.30928281 -7.48919256 -14.09744203 90.77270163 -21.74179788 55.85037092 -4.01598333 -18.93241693
753510000 -0.33358060 -7.52655066 -14.10519116 90.72861862 -21.58209866 55.75790897 -4.01576541 -18.98032158
758500000 -0.36161234 -7.57525724 -14.13368088 90.47640629 -21.67220341 55.52375627 -4.02590556 -19.08730321
763490000 -0.38673476 -7.55293878 -14.15800307 90.27506327 -21.58221843 55.99701859 -4.01895778 -19.05360899
768480000 -0.40319641 -7.56707517 -14.20218686 90.10431419 -21.57160165 55.81537998 -4.01570859 -19.12758525
773470000 -0.39721838 -7.19355811 -14.18140313 90.25500707 -21.54086198 56.05819689 -4.02433822 -19.15192725
778460000 -0.38483735 -7.00285188 -14.20031325 90.02236975 -21.53298834 55.91042072 -4.02897736 -19.16215043
783450000 -0.35160204 -6.89567717 -14.20464108 90.03377836 -21.46539082 56.32427752 -4.02477418 -19.24472554
788440000 -0.32386458 -6.90915261 -14.18908551 89.88377498 -21.33089210 56.49484246 -4.02276301 -19.23225115
793430000 -0.30092006 -6.95744014 -14.19952479 89.52473226 -21.31133109 56.36338935 -4.03770190 -19.26427269
798420000 -0.27858396 -7.02792621 -14.19846225 89.42386830 -21.28628471 56.28636014 -4.04226631 -19.14833566
803410000 -0.27888959 -7.18753980 -14.20966055 89.08587002 -21.22239945 56.31904161 -4.05511426 -19.30589233
808400000 -0.26736420 -7.23382004 -14.21221514 89.00152649 -21.23614657 56.16725501 -4.07400604 -19.25106127
813390000 -0.28017168 -7.35461483 -14.23619767 88.67416572 -21.16806247 55.76811008 -4.08335663 -19.30767165
818380000 -0.26209956 -7.47831147 -14.21925480 88.40114035 -21.10489097 56.01100019 -4.09211899 -19.25785344
823370000 -0.26286789 -7.59327424 -14.21490654 88.20958184 -21.10643605 56.07316314 -4.10860876 -19.38191631
828360000 -0.27553465 -7.73383249 -14.24817094 87.92280984 -21.07244803 55.89356387 -4.11731524 -19.33429492
833350000 -0.29346941 -7.88015421 -14.25516156 87.72489345 -21.06083918 56.09424698 -4.12492631 -19.32609698
838340000 -0.29550625 -7.95955407 -14.24362719 87.53292906 -20.97197798 55.99846767 -4.13574539 -19.47945978
843330000 -0.31110980 -8.05464319 -14.27535724 87.35968222 -21.01494464 55.85759114 -4.14709126 -19.39687919
848320000 -0.31688044 -8.17409267 -14.29679652 87.15781329 -20.91659687 55.87143071 -4.14666798 -19.54233960
853310000 -0.33295885 -8.23957060 -14.31272837 86.98923305 -20.90712904 56.07558830 -4.16023338 -19.54810524
858300000 -0.35095503 -8.39030227 -14.31379829 86.89361145 -20.90091623 55.51743001 -4.15858708 -19.56486237
863290000 -0.35857116 -8.54005055 -14.33318289 86.38779540 -20.85599099 55.69658526 -4.17261564 -19.57662174
868280000 -0.39565024 -8.49520862 -14.36415982 86.52559242 -20.85448298 55.82274404 -4.16598241 -19.59891459
873270000 -0.40950556 -8.47297090 -14.36735760 86.31878027 -20.82233233 55.84134692 -4.16893822 -19.67602029
878260000 -0.42027489 -8.32972381 -14.38334687 86.28737155 -20.70962370 56.12869413 -4.16902526 -19.76635297
883250000 -0.43297746 -8.10790260 -14.39754949 86.35871614 -20.72698593 56.11859637 -4.17094726 -19.74048356
888240000 -0.41283089 -7.97238162 -14.40574190 86.14394627 -20.73938387 56.32148351 -4.18665040 -19.72107681
893230000 -0.37942390 -7.85144638 -14.37915886 86.07518564 -20.63356418 56.37459109 -4.18574566 -19.70352618
898220000 -0.36215903 -7.82578203 -14.36494466 85.89261199 -20.59420389 56.17193869 -4.19480815 -19.72679400
903210000 -0.33264385 -7.81906171 -14.38393841 85.70371211 -20.58425375 56.31707634 -4.19826159 -19.73991169
908200000 -0.31305537 -7.91466484 -14.35634008 85.49088383 -20.52334624 56.36016706 -4.19848478 -19.77717770
913190000 -0.29400605 -8.03130634 -14.34576080 85.33040077 -20.48887482 56.30508010 -4.21066990 -19.78224786
918180000 -0.28737242 -8.17630937 -14.34887063 85.15072930 -20.44472558 56.25676047 -4.21368778 -19.81966828
923170000 -0.30203174 -8.28313760 -14.35062993 84.86837259 -20.39050718 55.81428637 -4.22160004 -19.77948642
928160000 -0.32070254 -8.35733763 -14.37196078 84.77056921 -20.41272486 56.02832214 -4.22631502 -19.88774351
933150000 -0.31272331 -8.54308954 -14.36418025 84.43932555 -20.31173568 55.90776275 -4.23690243 -19.83918665
938140000 -0.32643425 -8.57997900 -14.39330234 84.36575057 -20.28375940 56.07860662 -4.25298961 -19.96670080
943130000 -0.34503717 -8.62255672 -14.39363276 84.24827182 -20.28900841 55.72607007 -4.25910557 -19.97836284
948120000 -0.35058536 -8.79570544 -14.40985148 83.98888987 -20.26149172 55.91065837 -4.26887310 -20.09063486
953110000 -0.36358685 -8.87901075 -14.40915472 83.67184220 -20.23415140 55.83597639 -4.26916959 -20.07398572
958100000 -0.36683271 -9.05620657 -14.44972951 83.69057963 -20.24701488 56.07095943 -4.27873840 -20.16810890
963090000 -0.37264757 -9.15876865 -14.42578820 83.58142219 -20.18115036 55.93016486 -4.28121688 -20.20693221
968080000 -0.39307198 -9.19562667 -14.45004876 83.42223618 -20.13434009 56.00799054 -4.27480085 -20.27979373
973070000 -0.41660261 -9.21060284 -14.47369921 83.24728270 -20.11277829 56.07285344 -4.28448996 -20.33002124
978060000 -0.43257277 -9.31262893 -14.46555971 83.05471791 -20.09828447 55.94770985 -4.28120837 -20.33985476
983050000 -0.45191459 -9.27531277 -14.47599772 82.88222908 -20.06480299 56.13454012 -4.27867083 -20.41776783
988040000 -0.46185746 -9.17657791 -14.46575011 82.97048389 -20.05356894 56.03665894 -4.27193781 -20.42874480
993030000 -0.47246006 -9.01370688 -14.49487938 82.83366773 -20.02226852 56.10639943 -4.29394360 -20.44216921
998020000 -0.46165410 -8.81698519 -14.49547824 82.70118952 -20.02972949 56.18290563 -4.29383384 -20.46767759
1003010000 -0.43987093 -8.71289533 -14.50104659 82.94360783 -19.95071934 56.28018008 -4.29612864 -20.47981622
1008000000 -0.42010965 -8.60337902 -14.48245364 82.73261270 -19.96789886 56.27773868 -4.30253180 -20.53385585
1012990000 -0.39465535 -8.61185391 -14.43787766 82.53055708 -19.87406332 56.17648477 -4.30439263 -20.52471403
1017980000 -0.37121555 -8.76022143 -14.42511911 82.15680890 -19.80512329 56.08758507 -4.31258536 -20.61375957
1022970000 -0.36780139 -8.84974963 -14.43427055 82.16860681 -19.76041883 56.05940266 -4.31590957 -20.58874246
1027960000 -0.36309388 -8.97839155 -14.45377740 81.71605811 -19.75993780 56.03297433 -4.33150205 -20.57279781
1032950000 -0.36805827 -9.08372753 -14.44139450 81.62228457 -19.72247699 56.09483285 -4.34340727 -20.55802241
1037940000 -0.37693462 -9.16756656 -14.47905201 81.48163769 -19.71682935 55.97417377 -4.35419907 -20.65226442
1042930000 -0.39595203 -9.28808126 -14.45661977 81.18939374 -19.65767968 56.16539602 -4.35913489 -20.65594679
1047920000 -0.40772857 -9.34653919 -14.48952073 81.28377052 -19.60871040 56.00875816 -4.36437257 -20.70300523
1052910000 -0.41458258 -9.51819940 -14.46886948 80.77631528 -19.64918553 55.72569422 -4.37256517 -20.79251702
1057900000 -0.42634196 -9.56216843 -14.46672842 80.85265325 -19.62625000 55.86508960 -4.37897713 -20.74638136
1062890000 -0.43522961 -9.73163204 -14.47778650 80.64253516 -19.56473905 55.95004272 -4.38215143 -20.80181576
1067880000 -0.44037389 -9.68596606 -14.49165453 80.70632161 -19.53881631 55.91566048 -4.37512370 -20.90567345
1072870000 -0.44378268 -9.90814753 -14.49320240 80.42499277 -19.53753450 55.92721644 -4.38497141 -20.92022653
1077860000 -0.46446265 -9.95811597 -14.50669383 80.24545734 -19.52077181 55.75847498 -4.38996027 -20.92281355
1082850000 -0.46697641 -10.00177971 -14.49982051 80.11827238 -19.51215690 55.94368573 -4.39721788 -20.98492654
1087840000 -0.48301735 -10.08002059 -14.52199782 80.06117814 -19.48751898 55.96172856 -4.38866043 -21.08861526
1092830000 -0.49368050 -10.10533779 -14.50343467 79.91940346 -19.42842541 55.70515487 -4.39144189 -21.11183539
1097820000 -0.50664328 -10.03246134 -14.51240789 79.87360164 -19.41987159 55.90359375 -4.39363327 -21.11244131
1102810000 -0.51554045 -9.88877627 -14.51550081 79.99067067 -19.40924004 56.04010702 -4.39680932 -21.19548695
1107800000 -0.51490720 -9.77324181 -14.50387885 79.71368356 -19.35061826 56.05657914 -4.39563466 -21.19722401
1112790000 -0.50167265 -9.66615265 -14.48597870 79.59042568 -19.31401310 55.95432026 -4.40650905 -21.17940535
1117780000 -0.48498354 -9.59597682 -14.48930648 79.66156858 -19.29787029 56.22129746 -4.40321106 -21.22735586
1122770000 -0.46768688 -9.59195945 -14.45764025 79.52118585 -19.19881374 55.93966291 -4.40325385 -21.34118201
1127760000 -0.46067317 -9.68137145 -14.46501938 79.19770411 -19.17224771 55.82693147 -4.40668995 -21.27592108
1132750000 -0.46148088 -9.74594212 -14.47644195 79.08852930 -19.14534617 55.93715060 -4.42175683 -21.31237623
1137740000 -0.45439531 -9.84240848 -14.43999891 79.03443233 -19.13595393 55.80896714 -4.42397380 -21.36582008
1142730000 -0.45668798 -9.91284318 -14.44688010 78.86862085 -19.13999296 55.46668549 -4.42916751 -21.42987039
1147720000 -0.47134376 -9.99910377 -14.46948003 78.64398994 -19.07674800 55.79635813 -4.45826762 -21.42282885
1152710000 -0.48024744 -10.03406840 -14.45605785 78.47883302 -19.10598963 55.59143246 -4.46912352 -21.41998880
1157700000 -0.48356915 -10.15906955 -14.47188657 78.43401167 -19.04430907 55.64549747 -4.47354949 -21.49697632
1162690000 -0.49143710 -10.27043236 -14.46111838 78.35177836 -19.00781229 55.73353471 -4.47678251 -21.57971071
1167680000 -0.49917453 -10.34731016 -14.45629348 78.08946204 -18.99860096 55.60158415 -4.47550068 -21.61474682
1172670000 -0.50752258 -10.42396194 -14.46238561 78.01040537 -18.98168410 55.67912613 -4.47409825 -21.70305466
1177660000 -0.51913689 -10.46772848 -14.47664358 78.01439961 -18.96602001 55.75764861 -4.49160112 -21.76024357
1182650000 -0.51638243 -10.53561882 -14.49363897 77.84875547 -18.98389713 55.83245014 -4.49255275 -21.79191729
1187640000 -0.52019679 -10.59775909 -14.47731112 77.89709588 -18.94754431 55.62817634 -4.48861763 -21.81392791
1192630000 -0.52486868 -10.69304731 -14.43972835 77.73675069 -18.88062272 55.66038188 -4.49705803 -21.90974923
1197620000 -0.54143536 -10.70902494 -14.50037034 77.58772057 -18.85035092 55.69894338 -4.48935234 -21.91709230
1202610000 -0.54998980 -10.71595489 -14.48764302 77.57996782 -18.84419930 55.75588982 -4.49193395 -21.96314348
1207600000 -0.55959477 -10.71791985 -14.48997147 77.47678618 -18.84472718 55.52469142 -4.51600409 -22.03479448
1212590000 -0.56449892 -10.66030419 -14.48001158 77.44276960 -18.81744976 55.62078468 -4.50556527 -22.03565759
1217580000 -0.56027638 -10.57201221 -14.45818793 77.31708369 -18.78709055 55.61906349 -4.51242749 -22.00654232
1222570000 -0.56144777 -10.50792200 -14.47503518 77.19029086 -18.76138323 55.88024115 -4.51193178 -22.06202901
1227560000 -0.55171936 -10.46223860 -14.44547025 77.10842824 -18.71495975 55.66522286 -4.50569587 -22.06633141
1232550000 -0.53745578 -10.44700029 -14.43463199 76.97645341 -18.67023028 55.70713036 -4.51333733 -22.15125133
1237540000 -0.52652603 -10.50504433 -14.42674819 76.79312524 -18.62968691 55.70541612 -4.51085506 -22.09704394
1242530000 -0.53423849 -10.51605854 -14.39182962 76.53183333 -18.59258594 55.58893356 -4.52874959 -22.11123341
1247520000 -0.53824816 -10.60134952 -14.41989616 76.51433248 -18.60052704 55.64560777 -4.52026259 -22.18210330
1252510000 -0.53620965 -10.70807335 -14.42398497 76.28309305 -18.54240051 55.45163636 -4.53577552 -22.22714099
1257500000 -0.54920493 -10.69177488 -14.40973425 76.29534656 -18.53339680 55.47179942 -4.53798224 -22.25469905
1262490000 -0.55693448 -10.79960180 -14.43101851 76.10574530 -18.50758081 55.61280297 -4.54020691 -22.34034633
1267480000 -0.56331193 -10.89618804 -14.42505878 76.07608387 -18.48326398 55.45589645 -4.55964774 -22.40696272
1272470000 -0.57506502 -10.97280238 -14.41967860 75.96573804 -18.47366552 55.31964743 -4.54526456 -22.46374428
1277460000 -0.57641735 -11.07650910 -14.39762192 75.77822067 -18.45739660 55.57665671 -4.55761121 -22.50231763
1282450000 -0.58438129 -11.06112844 -14.43417268 75.74556423 -18.42553646 55.31763499 -4.56863979 -22.57961699
1287440000 -0.59339113 -11.18695271 -14.42840666 75.66654333 -18.40828704 55.46173335 -4.57081580 -22.70950205
1292430000 -0.59001762 -11.28545268 -14.44143896 75.50413028 -18.37407622 55.31633527 -4.56552165 -22.72008871
1297420000 -0.59413172 -11.24105657 -14.40347498 75.55394093 -18.41215891 55.54182237 -4.56284705 -22.76481952
1302410000 -0.59896532 -11.29237891 -14.40886219 75.45004740 -18.35276049 55.33238862 -4.56403762 -22.80516905
1307400000 -0.59763616 -11.41905167 -14.40559876 75.29553465 -18.31862122 55.44559151 -4.56909446 -22.82710856
1312390000 -0.60372251 -11.39169527 -14.40759121 75.21077319 -18.28125821 55.39614670 -4.57884652 -22.90790647
1317380000 -0.60786719 -11.36715937 -14.40176795 75.09079125 -18.28890832 55.41402159 -4.57646391 -22.99925159
1322370000 -0.61574378 -11.36485954 -14.40718666 75.10995981 -18.24228916 55.48338106 -4.58408513 -22.90391456
1327360000 -0.61717972 -11.31734053 -14.39055625 75.01406683 -18.24491225 55.65039926 -4.59549210 -22.97455917
1332350000 -0.61542668 -11.22973623 -14.37655270 74.95509840 -18.20519033 55.57003325 -4.59039103 -22.93674590
1337340000 -0.60906500 -11.24151190 -14.39422386 74.89342650 -18.15886681 55.55687669 -4.60713048 -23.04105084
1342330000 -0.59490185 -11.21604269 -14.34677669 74.72945163 -18.11240384 55.34470472 -4.60057773 -22.93669935
1347320000 -0.59776738 -11.26144158 -14.34181985 74.59292227 -18.09881298 55.45446343 -4.62043146 -23.07712374
1352310000 -0.60454321 -11.29377275 -14.32746985 74.35835010 -18.12063463 55.27813483 -4.62378315 -23.06012303
1357300000 -0.60406798 -11.36514561 -14.34525153 74.28685201 -18.05607211 55.35362925 -4.62619843 -23.11522933
1362290000 -0.60981285 -11.45795500 -14.33720618 74.15099222 -18.01712623 55.37468761 -4.62226586 -23.17453786
1367280000 -0.62093582 -11.53312459 -14.33010109 73.99266018 -18.01511421 55.23960939 -4.63390851 -23.14441678
1372270000 -0.64389599 -11.60393420 -14.35798987 73.91552205 -17.97822127 55.15779862 -4.64329898 -23.24686561
1377260000 -0.65503592 -11.65800006 -14.34011239 73.92984542 -18.00102061 55.29715153 -4.65326821 -23.32418075
1382250000 -0.65380552 -11.60810138 -14.34944401 74.06246844 -17.94961017 55.26911720 -4.64719826 -23.29992720
1387240000 -0.65210971 -11.74986673 -14.35617064 73.81863709 -17.92098143 55.29816628 -4.66548076 -23.29658607
1392230000 -0.65383571 -11.81078620 -14.30593837 73.79642025 -17.90454479 55.13298441 -4.66226618 -23.46193721
1397220000 -0.65042718 -11.90879579 -14.32944367 73.46866787 -17.91285139 55.31134288 -4.65299579 -23.42172475
1402210000 -0.65981254 -12.02390173 -14.31012281 73.44088047 -17.88601155 55.28183354 -4.65383286 -23.51437783
1407200000 -0.65854627 -12.04770638 -14.30666301 73.43347901 -17.83954530 55.17648944 -4.65643540 -23.58134094
1412190000 -0.64956328 -12.04393553 -14.30259884 73.40548725 -17.83621401 55.11047834 -4.64086434 -23.58495023
1417180000 -0.65366262 -12.09660089 -14.29258746 73.35657183 -17.78430493 55.23316036 -4.65019903 -23.64042822
1422170000 -0.64955093 -12.14970803 -14.28686999 73.08751500 -17.76253653 55.19099188 -4.64830706 -23.64654362
1427160000 -0.66751991 -12.09839564 -14.29014985 73.16385143 -17.78309465 55.12670203 -4.66200828 -23.76109320
1432150000 -0.65963121 -12.15783393 -14.27544951 72.89081199 -17.73785761 55.27859851 -4.65894193 -23.69280694
1437140000 -0.66115696 -12.14497520 -14.29312032 72.83303051 -17.71167987 55.05506209 -4.66899223 -23.79151795
1442130000 -0.66753078 -12.05224007 -14.26102823 72.84064861 -17.68660113 55.14871851 -4.66459792 -23.86386601
1447120000 -0.66722169 -12.14660880 -14.24700259 72.61741535 -17.65098323 55.20088248 -4.68025646 -23.87925998
1452110000 -0.66972343 -12.03668174 -14.24010834 72.70418710 -17.66957157 54.93345344 -4.68712632 -23.87058083
1457100000 -0.66708232 -12.10751374 -14.23346853 72.57314450 -17.61665975 54.90148655 -4.72109397 -23.94651914
1462090000 -0.67293651 -12.15641037 -14.22364556 72.40797437 -17.58953817 55.06359085 -4.70642699 -23.94939113
1467080000 -0.67331529 -12.16164826 -14.23194332 72.33136662 -17.55805981 54.86254406 -4.70751974 -24.01810174
1472070000 -0.67697762 -12.18096004 -14.21743508 72.15242333 -17.59294120 54.87561714 -4.71460627 -24.07565957
1477060000 -0.69197122 -12.32141176 -14.23697262 72.15678826 -17.51144207 54.82907028 -4.71567438 -24.21300369
1482050000 -0.70503864 -12.31623871 -14.22937620 72.02580211 -17.51400860 54.87089738 -4.72205548 -24.15832037
1487040000 -0.71259548 -12.36347895 -14.21724014 72.01149078 -17.50341747 54.75765816 -4.73387353 -24.19882217
1492030000 -0.70351417 -12.42089632 -14.22024346 72.03548906 -17.48907621 55.03496454 -4.74203155 -24.33072030
1497020000 -0.71055925 -12.46882594 -14.19873686 71.89399886 -17.45239897 54.90509770 -4.72915489 -24.41126965
1502010000 -0.70651833 -12.55714435 -14.19687870 71.71340391 -17.44838008 54.95147316 -4.74190363 -24.45936754
1507000000 -0.70514795 -12.60514149 -14.19797565 71.80822215 -17.39231214 54.92650945 -4.73413601 -24.48261449
1511990000 -0.70047346 -12.62333802 -14.17588177 71.67629318 -17.38334399 54.76656388 -4.73979187 -24.48326447
1516980000 -0.69179347 -12.69709308 -14.16412024 71.58579572 -17.36084918 54.76075963 -4.74825453 -24.52531917
1521970000 -0.68833417 -12.78815517 -14.14620224 71.62711569 -17.36218114 54.98190688 -4.75812317 -24.55471299
1526960000 -0.67860025 -12.79503051 -14.14637950 71.46372699 -17.29158991 54.78520885 -4.74552636 -24.67076899
1531950000 -0.67261198 -12.84744400 -14.11867521 71.28367711 -17.29655660 54.82580211 -4.75594214 -24.73113103
1536940000 -0.69291739 -12.92012302 -14.14542843 71.19035734 -17.28227493 54.68036074 -4.75573826 -24.67737191
1541930000 -0.69228831 -12.86952776 -14.14774030 71.12334852 -17.24420106 54.89663706 -4.76251737 -24.73583679
1546920000 -0.68202919 -12.88273310 -14.10283906 71.15239936 -17.22953572 54.53853526 -4.76347662 -24.77992895
1551910000 -0.69626975 -12.89314169 -14.10779736 70.96855218 -17.20937475 54.69375408 -4.76572342 -24.82226867
1556900000 -0.69729554 -12.93413410 -14.09672680 70.77590965 -17.17638390 54.62296115 -4.77049891 -24.90604671
1561890000 -0.71072265 -12.88735901 -14.09537546 70.80930659 -17.16231579 54.63993461 -4.78109801 -24.88424795
1566880000 -0.71862126 -12.91777063 -14.10219968 70.68477014 -17.14204534 54.48023600 -4.78036406 -24.89264513
1571870000 -0.71750870 -13.00281860 -14.06316338 70.43969234 -17.12093270 54.42957384 -4.78848495 -24.92993201
1576860000 -0.72832933 -12.95982856 -14.09492344 70.62819662 -17.08628817 54.72803286 -4.79130691 -24.95867085
1581850000 -0.74410097 -13.06678615 -14.09944536 70.46078644 -17.08985540 54.26474219 -4.79854466 -25.09464462
1586840000 -0.74424171 -13.06195431 -14.06098361 70.40395460 -17.06737588 54.39447614 -4.80191232 -25.10275431
1591830000 -0.74776885 -13.13311402 -14.06848843 70.26937166 -17.06709287 54.56426508 -4.80031665 -25.14437923
1596820000 -0.75317784 -13.19703647 -14.06218935 70.23315156 -17.01820918 54.35817416 -4.80618997 -25.20374496
1601810000 -0.74388911 -13.23546600 -14.05498970 70.20661152 -17.01081484 54.51251695 -4.82080749 -25.27759768
1606800000 -0.74912813 -13.29400839 -14.05498578 70.06760957 -16.97771495 54.40274772 -4.80339432 -25.26427316
1611790000 -0.75012920 -13.39179545 -14.03043101 70.02089332 -16.95171902 54.33788792 -4.80884133 -25.38365087
1616780000 -0.73887658 -13.41583526 -14.01402105 70.10180557 -16.93767607 54.24074603 -4.81375854 -25.40733318
1621770000 -0.73445822 -13.41681705 -14.02586031 69.92049348 -16.91055227 54.32079571 -4.80845873 -25.40911199
1626760000 -0.73142882 -13.51486948 -14.00969999 69.87844835 -16.89966468 54.32218607 -4.82286274 -25.47653853
1631750000 -0.71960128 -13.56396431 -13.99963018 69.77801570 -16.89032399 54.39305180 -4.81435557 -25.55834508
1636740000 -0.71833499 -13.59130374 -13.98605784 69.64567793 -16.84346637 54.31326459 -4.80980182 -25.58914497
1641730000 -0.71214871 -13.61357844 -13.97550656 69.45459201 -16.82922250 54.24797303 -4.81637841 -25.55250517
1646720000 -0.72342718 -13.69809150 -13.98618732 69.46932713 -16.82664333 54.36838733 -4.83068572 -25.61586784
1651710000 -0.72216860 -13.69158831 -13.96656625 69.37475973 -16.77638984 54.15920561 -4.83453896 -25.61264314
1656700000 -0.72026576 -13.73508120 -13.96912886 69.33278187 -16.77926321 54.22089538 -4.83799061 -25.63829105
1661690000 -0.71766999 -13.72963044 -13.95843766 69.15256905 -16.73172635 54.00136694 -4.84441453 -25.73452063
1666680000 -0.73212982 -13.77088066 -13.93600490 69.05244422 -16.74506024 54.07133678 -4.84553023 -25.71797637
1671670000 -0.73274890 -13.79576258 -13.94042056 69.06854797 -16.71222613 54.01256020 -4.86192131 -25.84503096
1676660000 -0.74076704 -13.82602644 -13.93108587 68.87673954 -16.71070090 54.11733464 -4.87133012 -25.80665479
1681650000 -0.74309230 -13.81427964 -13.93851428 68.97730229 -16.67360135 54.04481178 -4.86972593 -25.88648711
1686640000 -0.75578673 -13.86880830 -13.92951682 68.78248208 -16.66162313 54.12369048 -4.86784359 -26.04428821
1691630000 -0.75817695 -13.96843280 -13.93060336 68.65451527 -16.65026440 54.08099586 -4.88418701 -25.96461167
1696620000 -0.76774944 -13.89629334 -13.92168142 68.59843317 -16.64635344 53.99206922 -4.89383260 -26.03250400
1701610000 -0.77672991 -13.98227110 -13.90447821 68.66405833 -16.61274411 54.05714883 -4.89408589 -26.09238235
1706600000 -0.76482595 -14.07640932 -13.89709328 68.57480730 -16.61404680 54.09352901 -4.89310847 -26.13143043
1711590000 -0.77013092 -14.03653807 -13.87266181 68.54016817 -16.57703990 54.09445374 -4.90249423 -26.18275034
1716580000 -0.76846074 -14.14118784 -13.89294344 68.40203682 -16.56620169 53.89210855 -4.88907307 -26.16221628
1721570000 -0.77289472 -14.20861982 -13.86994080 68.40672517 -16.50100567 54.06111622 -4.89549725 -26.32130493
1726560000 -0.76842497 -14.29557415 -13.85888272 68.33753880 -16.52649774 53.88044282 -4.91493642 -26.22815379
1731550000 -0.75300313 -14.34240407 -13.83682240 68.24272345 -16.49297601 53.82218428 -4.89655197 -26.38794770
1736540000 -0.75058069 -14.37816018 -13.84696354 68.16992346 -16.46700641 53.74433849 -4.90213114 -26.41545882
1741530000 -0.73949546 -14.44544198 -13.82671474 67.99150181 -16.46926809 53.79658029 -4.90407748 -26.39676108
1746520000 -0.73736408 -14.45599146 -13.81237484 67.81450093 -16.41733165 53.63213027 -4.90987149 -26.46057106
1751510000 -0.74050410 -14.46513592 -13.78714861 67.80732520 -16.39453215 53.62404674 -4.90876269 -26.50351220
1756500000 -0.73330045 -14.44218178 -13.79937767 67.74885546 -16.38989720 53.72329090 -4.91147675 -26.54239449
1761490000 -0.72942686 -14.53098991 -13.75524544 67.62042392 -16.36909510 53.72206274 -4.91644545 -26.61557276
1766480000 -0.74407773 -14.60265540 -13.80027806 67.68102032 -16.37394578 53.43563245 -4.92582832 -26.62810085
1771470000 -0.74187396 -14.52868896 -13.77855887 67.57089991 -16.34396717 53.50836233 -4.92791820 -26.70994842
1776460000 -0.75244432 -14.64375666 -13.76903159 67.29882598 -16.31000288 53.53624177 -4.94118083 -26.70692349
1781450000 -0.76655115 -14.62636106 -13.78010426 67.32839215 -16.32349893 53.50612301 -4.94258126 -26.79907208
1786440000 -0.76601362 -14.68792313 -13.76954662 67.19040246 -16.30541931 53.50904423 -4.95686859 -26.77326236
1791430000 -0.77921758 -14.76643671 -13.76391407 67.14406784 -16.26444563 53.28897210 -4.96281038 -26.81318535
1796420000 -0.77603904 -14.79254137 -13.73166804 67.11235833 -16.24627904 53.46964276 -4.95835809 -26.95504764
1801410000 -0.79080258 -14.84343701 -13.77330431 67.09235785 -16.21678059 53.34015872 -4.95886414 -26.96264775
1806400000 -0.79656517 -14.87964525 -13.76162801 67.24688450 -16.23833937 53.25899592 -4.96667131 -27.05351131
1811390000 -0.79605457 -14.81410856 -13.73696537 67.01703042 -16.20614380 53.36625543 -4.96149574 -27.01829803
1816380000 -0.79929369 -14.97586876 -13.74651824 66.97826145 -16.21381141 53.34478379 -4.95921254 -27.09736288
1821370000 -0.78880929 -15.01830269 -13.71180354 66.84669464 -16.18074236 53.44679495 -4.96987123 -27.22893438
1826360000 -0.78920443 -15.05727929 -13.70462254 66.89867376 -16.14767009 53.25014329 -4.97832119 -27.18812608
1831350000 -0.78212447 -15.10900574 -13.69013522 66.59664191 -16.13568216 53.45822343 -4.96946475 -27.36263815
1836340000 -0.77370165 -15.13243919 -13.67252726 66.71108621 -16.10450977 53.33766901 -4.97113108 -27.25156561
1841330000 -0.77995430 -15.20687655 -13.67840438 66.43604297 -16.09078602 53.23124724 -4.97447351 -27.36104641
1846320000 -0.75702193 -15.30240268 -13.66605917 66.46907673 -16.05446634 53.18295188 -4.96934474 -27.37919685
1851310000 -0.75965533 -15.29244686 -13.67926626 66.28245003 -16.05747689 53.12418258 -4.96886547 -27.38137352
1856300000 -0.74270119 -15.40687355 -13.63068971 66.27514346 -16.00121217 53.10904218 -4.98204606 -27.42549194
1861290000 -0.76124407 -15.33629588 -13.60570828 66.09258829 -16.02977387 53.03306750 -4.98446238 -27.40328513
1866280000 -0.74652895 -15.43787588 -13.65604262 66.11280123 -15.99181744 52.96858566 -4.98421338 -27.39678981
1871270000 -0.75625193 -15.51349996 -13.60902802 66.06001265 -15.96341471 52.87041814 -4.99825661 -27.46414778
1876260000 -0.76541173 -15.55057823 -13.59077758 65.79834374 -15.96115197 52.82503135 -4.99922555 -27.49997570
1881250000 -0.75963158 -15.50445585 -13.61748823 65.76628431 -15.91777874 52.71412001 -5.01593731 -27.59273077
1886240000 -0.77060417 -15.52766664 -13.59969472 65.64322975 -15.94824761 52.83856303 -5.03226905 -27.55780991
1891230000 -0.77964783 -15.55805782 -13.58785568 65.74836674 -15.94620152 52.72127884 -5.02917642 -27.71840414
1896220000 -0.78347920 -15.62847131 -13.57968462 65.46440511 -15.91132124 52.68146468 -5.03978434 -27.69359195
1901210000 -0.80142188 -15.61719091 -13.57472557 65.38274315 -15.89341621 52.68440144 -5.04785164 -27.81077740
1906200000 -0.79507770 -15.67614680 -13.59178922 65.62722386 -15.86999435 52.80672977 -5.05478039 -27.82546117
1911190000 -0.79910681 -15.74129752 -13.55903143 65.31896684 -15.86941250 52.57877358 -5.05350716 -27.90306552
1916180000 -0.81229173 -15.77149491 -13.56774371 65.34261972 -15.85320639 52.68258078 -5.06071578 -27.91513576
1921170000 -0.79852973 -15.88997964 -13.54020103 65.31235151 -15.82946029 52.60525326 -5.05419128 -28.00484811
1926160000 -0.80669043 -15.90951535 -13.54327189 65.25953134 -15.80955958 52.68656117 -5.05279260 -28.02266053
1931150000 -0.81148394 -15.95943069 -13.53024767 65.29031287 -15.80231258 52.64707540 -5.05054232 -28.12756724
1936140000 -0.78847884 -16.07231067 -13.51075863 65.12067218 -15.75729977 52.50502963 -5.05284834 -28.16012842
1941130000 -0.79623305 -16.02188741 -13.52072381 65.19589171 -15.76508621 52.66024257 -5.06377444 -28.17752435
1946120000 -0.78504526 -16.09585830 -13.51804639 65.06653860 -15.74749832 52.62602123 -5.04722075 -28.21648661
1951110000 -0.77881000 -16.21998716 -13.49463364 64.93403099 -15.71283398 52.45477142 -5.05230498 -28.27865687
1956100000 -0.76970542 -16.19442787 -13.48683407 64.95626261 -15.69425181 52.50308047 -5.05505988 -28.25081681
1961090000 -0.77047222 -16.25607840 -13.46477511 64.74641633 -15.69494679 52.36620883 -5.06306185 -28.28243169
1966080000 -0.76847455 -16.34560039 -13.44448794 64.58309880 -15.64828039 52.32522600 -5.05880961 -28.32763768
1971070000 -0.75906269 -16.35496196 -13.45925002 64.56163132 -15.62637738 52.12084721 -5.06358016 -28.32570104
1976060000 -0.76158577 -16.45915948 -13.45178737 64.36219928 -15.61797404 52.16774138 -5.07131930 -28.45234504
1981050000 -0.76845427 -16.32691197 -13.44587693 64.34692657 -15.62053232 52.06492028 -5.08274245 -28.42745432
1986040000 -0.76478631 -16.36266466 -13.41630399 64.39422061 -15.59528902 52.23119704 -5.09035346 -28.46381319
1991030000 -0.76383014 -16.44209917 -13.42938449 64.06214380 -15.58841351 52.09921497 -5.08310321 -28.56088655
1996020000 -0.79541329 -16.57260984 -13.43565364 64.01247868 -15.57959284 52.01297545 -5.09181421 -28.62686587
2001010000 -0.79539986 -16.51534794 -13.42071099 63.97105744 -15.58143811 51.96662004 -5.12232128 -28.57214411
2006000000 -0.79806418 -16.52667877 -13.41683734 63.93369799 -15.52752426 52.05953804 -5.10899468 -28.68526063
2010990000 -0.79886787 -16.53996049 -13.39033032 63.99297182 -15.53497851 51.98566592 -5.11986957 -28.70684452
2015980000 -0.80825584 -16.62560759 -13.42074852 63.88529831 -15.56260287 51.98895048 -5.13695921 -28.81711901
2020970000 -0.82016543 -16.66011977 -13.38675335 63.79949188 -15.52139958 51.94899313 -5.13205296 -28.90434025
2025960000 -0.81277465 -16.64118816 -13.39423848 63.80219284 -15.48304855 51.86388552 -5.14162497 -28.92631209
2030950000 -0.83079824 -16.72563641 -13.39513405 63.75941691 -15.49472654 51.99406212 -5.15209364 -28.89895155
2035940000 -0.81208242 -16.83521058 -13.39557607 63.68205402 -15.47390736 51.96490707 -5.14818171 -28.95254525
2040930000 -0.79841464 -16.89928348 -13.36384937 63.65494832 -15.44348609 52.04263177 -5.13610448 -29.00613306
2045920000 -0.80611992 -16.97393468 -13.34016151 63.52261080 -15.43030986 51.89488347 -5.13710532 -29.14651845
2050910000 -0.79656756 -17.03727781 -13.34095069 63.57159801 -15.40130255 51.74413746 -5.14752912 -29.05353860
2055900000 -0.80080345 -17.04135758 -13.34071537 63.49169101 -15.38307598 51.74089998 -5.13524694 -29.03263535
2060890000 -0.78597465 -17.11392996 -13.32133001 63.25241594 -15.37316333 51.76610942 -5.14624998 -29.17858867
2065880000 -0.77809202 -17.25013822 -13.28444034 63.11835272 -15.37663759 51.61503371 -5.13857512 -29.20544773
2070870000 -0.78140406 -17.26813492 -13.28736698 62.97222687 -15.34777606 51.60753947 -5.15589645 -29.14747989
2075860000 -0.77108944 -17.35682177 -13.30034258 63.02626307 -15.35006312 51.41434042 -5.15245528 -29.29458932
2080850000 -0.77793869 -17.27729994 -13.28485571 62.90951146 -15.32411384 51.45693757 -5.16270616 -29.30080897
2085840000 -0.77772943 -17.37820353 -13.28615729 62.73921456 -15.31576805 51.33378252 -5.15778419 -29.34351737
2090830000 -0.77996073 -17.38068319 -13.26104549 62.88884815 -15.26527508 51.33192481 -5.15917435 -29.28147917
2095820000 -0.79236451 -17.30102226 -13.26490163 62.77277047 -15.26858722 51.33026575 -5.16537955 -29.40772841
2100810000 -0.79575928 -17.33430809 -13.25544287 62.69484016 -15.24721727 51.30266477 -5.17628353 -29.43074929
2105800000 -0.80806612 -17.35248433 -13.27383505 62.57380214 -15.24046080 51.19875674 -5.19261341 -29.48990506
2110790000 -0.81774106 -17.38078162 -13.25557109 62.50354497 -15.22633692 51.20744616 -5.20192464 -29.47540816
2115780000 -0.82522874 -17.47293180 -13.25347484 62.35282341 -15.23526203 51.32294273 -5.20177817 -29.55650835
2120770000 -0.82760710 -17.46617007 -13.24189020 62.53206005 -15.20302285 51.26099684 -5.20036980 -29.61121401
2125760000 -0.83202104 -17.49445942 -13.23359914 62.46278229 -15.22434680 51.29646472 -5.22209639 -29.66274906
2130750000 -0.83008070 -17.54448993 -13.22845872 62.44592879 -15.19291018 51.10588048 -5.19799651 -29.87152166
2135740000 -0.83773103 -17.61183739 -13.23427498 62.26768187 -15.14021587 51.13512537 -5.21240621 -29.93221435
2140730000 -0.82821495 -17.65294295 -13.21307812 62.21974964 -15.15893024 51.11629799 -5.21369538 -29.89081027
2145720000 -0.82882183 -17.69684835 -13.20837653 62.09869026 -15.14641535 51.05883364 -5.20615652 -29.93958294
2150710000 -0.82705872 -17.87462534 -13.19682187 62.14681648 -15.12750830 50.87731643 -5.20458551 -29.89396887
2155700000 -0.81488872 -17.84952025 -13.17009937 62.00887609 -15.10015120 51.02178604 -5.20963790 -29.95108525
2160690000 -0.81065616 -17.95819563 -13.16660877 61.97473667 -15.08149156 51.08989393 -5.21670992 -30.01001775
2165680000 -0.79946551 -18.00480203 -13.15649710 61.83567025 -15.06373141 50.89902088 -5.22087614 -30.04781495
2170670000 -0.80939176 -18.02895252 -13.16096171 61.81573351 -15.05584045 50.86396865 -5.21568188 -29.98228668
2175660000 -0.78824956 -18.09966296 -13.12542290 61.74906993 -15.03807562 50.95492560 -5.22943553 -30.07028889
2180650000 -0.80142205 -18.10352400 -13.14220010 61.56059878 -15.01408067 50.79118154 -5.23642450 -30.17647957
2185640000 -0.79610374 -18.12080364 -13.12993677 61.59880583 -15.03330960 50.68598549 -5.23621570 -30.14522289
2190630000 -0.78436425 -18.13664845 -13.11578712 61.22420310 -14.99857602 50.59562164 -5.25533846 -30.14271294
2195620000 -0.79956157 -18.20528061 -13.12163881 61.28161108 -14.98057518 50.63491377 -5.26439939 -30.24870018
2200610000 -0.80932321 -18.22613008 -13.10839437 61.21426962 -14.98909419 50.45279286 -5.25994967 -30.30048107
2205600000 -0.81593275 -18.23279210 -13.11915930 61.20150978 -14.96015330 50.33616265 -5.26779688 -30.30757261
2210590000 -0.81633772 -18.21480508 -13.10837055 60.98565824 -14.97774563 50.44751593 -5.27521309 -30.34351761
2215580000 -0.83611583 -18.29576386 -13.11837808 60.95341405 -14.95479524 50.41278841 -5.26913803 -30.35726951
2220570000 -0.85334917 -18.26480588 -13.12459045 61.14040389 -14.96329783 50.37083974 -5.27451156 -30.48260373
2225560000 -0.84459438 -18.33856407 -13.08591639 61.00795569 -14.92077929 50.32484368 -5.28529717 -30.50690009
2230550000 -0.85808073 -18.43573860 -13.09528024 60.78629804 -14.91502517 50.34237176 -5.29580713 -30.60563716
2235540000 -0.86052638 -18.43596081 -13.07762981 61.01055770 -14.89423517 50.36572052 -5.30685727 -30.67857393
2240530000 -0.85634297 -18.41980680 -13.09163433 60.92305158 -14.87365954 50.48027770 -5.30170799 -30.68820306
2245520000 -0.84774701 -18.50635338 -13.06203622 60.80075141 -14.87640027 50.30375763 -5.29485023 -30.77877478
2250510000 -0.86386941 -18.53941311 -13.07669954 60.80496424 -14.87421641 50.25585393 -5.29959096 -30.72520594
2255500000 -0.85087303 -18.66515494 -13.05473343 60.76751393 -14.83858836 50.29500763 -5.30976600 -30.74850784
2260490000 -0.85236354 -18.72435554 -13.04263382 60.54982674 -14.83489659 50.36153285 -5.28904187 -30.96080559
2265480000 -0.84208934 -18.82669402 -13.03092365 60.46252313 -14.80186056 50.22513463 -5.30318228 -30.97097584
2270470000 -0.83415220 -18.83715292 -13.02255568 60.44703403 -14.76646173 50.16090020 -5.29948856 -30.93992231
2275460000 -0.83457380 -18.85907934 -13.00922726 60.50668532 -14.78592520 50.15046434 -5.29299933 -30.88036589
2280450000 -0.82674747 -18.88007152 -12.98983228 60.33485324 -14.78036044 49.94440648 -5.30754703 -31.00880120
2285440000 -0.82916852 -18.96010665 -13.01026588 60.20138016 -14.75744710 49.89903573 -5.31037382 -30.93671263
2290430000 -0.82308054 -18.99833949 -12.97495356 60.15015685 -14.74457126 49.84618285 -5.30991891 -30.95934413
2295420000 -0.82235404 -19.00223234 -12.98211129 60.14462869 -14.76431119 49.70964335 -5.32851445 -31.01225816
2300410000 -0.84497385 -19.01704502 -12.95906929 59.94022848 -14.74810669 50.01062600 -5.31577970 -31.05818529
2305400000 -0.84565866 -19.01187724 -12.95869111 59.89187175 -14.71794730 49.78291537 -5.32650880 -31.06168684
2310390000 -0.85165646 -19.00819326 -12.96225832 59.84520607 -14.70888117 49.71765527 -5.34261547 -31.07595531
2315380000 -0.87598223 -19.02129174 -12.99262955 59.76998691 -14.69984745 49.57496998 -5.33964984 -31.23120825
2320370000 -0.86354063 -19.10063550 -12.95379506 59.64887239 -14.68281592 49.44848763 -5.35869411 -31.32470056
2325360000 -0.87515869 -19.05308241 -12.96788348 59.64284775 -14.68555644 49.70662858 -5.36693669 -31.34934627
2330350000 -0.88715469 -19.06816578 -12.95415407 59.58995777 -14.68170905 49.56651010 -5.36766722 -31.34323293
2335340000 -0.88104314 -19.04548660 -12.95801746 59.67661468 -14.66777917 49.40829415 -5.36967409 -31.50047394
2340330000 -0.89835778 -19.13374367 -12.95128419 59.58268421 -14.64797926 49.47111744 -5.37891195 -31.53975956
2345320000 -0.90317711 -19.15419668 -12.94533007 59.45941931 -14.65018743 49.62144544 -5.37523035 -31.51384309
2350310000 -0.89873247 -19.23273352 -12.93977382 59.50842070 -14.63339205 49.48885388 -5.36590622 -31.57583511
2355300000 -0.89250991 -19.25009082 -12.91116851 59.53241409 -14.60795229 49.62848878 -5.37615977 -31.61121852
2360290000 -0.88571291 -19.32060190 -12.92709905 59.42839810 -14.59017374 49.55426239 -5.37583050 -31.69635293
2365280000 -0.89298896 -19.46638253 -12.90519567 59.18935644 -14.58967196 49.49842711 -5.36793278 -31.74331636
2370270000 -0.88462147 -19.41554055 -12.89084679 59.38817530 -14.56700095 49.62072156 -5.36671626 -31.78850354
2375260000 -0.86967853 -19.51056125 -12.87927779 59.14239023 -14.51371539 49.49655081 -5.36701115 -31.78854841
2380250000 -0.86869026 -19.52666907 -12.88350420 59.07227421 -14.53163510 49.34960961 -5.36559398 -31.82660396
2385240000 -0.86819504 -19.65692986 -12.87038652 59.01901935 -14.52785245 49.19413116 -5.38211685 -31.87993040
2390230000 -0.87359968 -19.68831846 -12.86047261 58.99964137 -14.52316331 49.25889919 -5.39325258 -31.87190273
2395220000 -0.86248291 -19.67119242 -12.85588352 58.86903434 -14.50892983 49.13244904 -5.38471328 -31.86039759
2400210000 -0.87089733 -19.71201153 -12.86034487 58.72452861 -14.49045125 49.22622781 -5.39282633 -31.94596638
2405200000 -0.86793326 -19.66459191 -12.85490464 58.81938261 -14.49213140 48.94402486 -5.41694622 -31.90978265
2410190000 -0.87996889 -19.70024846 -12.83541014 58.79124555 -14.45751244 49.01453341 -5.40177216 -31.98202658
2415180000 -0.88615212 -19.73707071 -12.83482236 58.55401388 -14.45650678 49.11492810 -5.40873214 -31.92796847
2420170000 -0.89281940 -19.72928349 -12.83004172 58.53435026 -14.45890669 48.99283024 -5.41028647 -32.09750572
2425160000 -0.89844356 -19.76565431 -12.81787091 58.40079132 -14.44076689 48.98909726 -5.42895392 -32.11160201
2430150000 -0.91502879 -19.75945104 -12.83204183 58.38902685 -14.44403766 49.07879582 -5.44113673 -32.21390916
2435140000 -0.91879770 -19.76754353 -12.79728676 58.42002565 -14.42277859 48.75907457 -5.43245324 -32.19525871
2440130000 -0.93244618 -19.74419545 -12.82489914 58.31526116 -14.44152430 48.88576963 -5.45153964 -32.26457235
2445120000 -0.93280686 -19.84441183 -12.79630620 58.27826788 -14.40533734 48.88507769 -5.44754618 -32.33219913
2450110000 -0.94036667 -19.82153011 -12.77530507 58.32687959 -14.40027185 48.73171537 -5.44143749 -32.37026178
2455100000 -0.94140125 -19.87068103 -12.79296768 58.30868763 -14.37636459 48.88102566 -5.44019802 -32.46306900
2460090000 -0.93760077 -19.90665601 -12.76399372 58.20280091 -14.38451094 48.90497103 -5.44951550 -32.40667835
2465080000 -0.94289946 -19.96707025 -12.77782931 58.02288119 -14.34287645 48.79020071 -5.44521205 -32.58058069
2470070000 -0.93358800 -20.05246882 -12.76836459 57.96865538 -14.33963554 48.80513956 -5.44230105 -32.55572040
2475060000 -0.92899830 -20.13145115 -12.77291419 58.01625153 -14.32235196 48.80516686 -5.44450863 -32.63821371
2480050000 -0.92047146 -20.18161153 -12.73330552 57.91838737 -14.30751270 48.47779913 -5.42805434 -32.61808561
2485040000 -0.91827700 -20.24442635 -12.72780434 57.91144575 -14.28187074 48.61473814 -5.45105466 -32.60362578
2490030000 -0.91864894 -20.27365521 -12.73888971 57.86924196 -14.28413739 48.54266921 -5.45738915 -32.67504183
2495020000 -0.92252399 -20.29638934 -12.71356878 57.76464714 -14.27111141 48.37031607 -5.44305835 -32.77228023
2500010000 -0.91821606 -20.35890066 -12.70616728 57.61863456 -14.24930949 48.39623120 -5.45096779 -32.69142772
2505000000 -0.92423897 -20.33397720 -12.72179481 57.48881858 -14.25882030 48.49105868 -5.46011164 -32.74765049
2509990000 -0.91572750 -20.31657400 -12.71910335 57.53156102 -14.25584821 48.30778386 -5.47274933 -32.82515584
2514980000 -0.92205537 -20.34352492 -12.69528375 57.47163840 -14.24176789 48.17471357 -5.47890315 -32.75857737
2519970000 -0.93838175 -20.34249558 -12.70766697 57.52443168 -14.23684177 48.25326862 -5.49206151 -32.83809420
2524960000 -0.93329160 -20.40657524 -12.69347582 57.28290117 -14.22809571 48.11949752 -5.48469700 -32.92645567
2529950000 -0.94845966 -20.41380476 -12.69797459 57.13170404 -14.22361520 48.06718643 -5.50380114 -32.97169544
2534940000 -0.95969216 -20.31354888 -12.68313568 57.24293950 -14.22056942 48.11523639 -5.49837363 -33.03584743
2539930000 -0.97166119 -20.43665380 -12.66328895 57.29900628 -14.20781420 48.08146498 -5.50995986 -33.08967915
2544920000 -0.98239424 -20.41104329 -12.69930977 57.05296720 -14.19997542 48.01261017 -5.50479853 -33.16695258
2549910000 -0.98946939 -20.42781131 -12.68357423 57.19448656 -14.19411820 48.06194939 -5.51145753 -33.20471889
2554900000 -0.98878899 -20.49239433 -12.66746829 56.96734382 -14.17402723 48.07971685 -5.52449834 -33.26928776
2559890000 -0.99717774 -20.52907178 -12.66014138 56.97806953 -14.16017149 48.07281957 -5.52009303 -33.28797307
2564880000 -1.00067158 -20.47535319 -12.68312668 57.03807462 -14.15624648 47.94934044 -5.51786006 -33.37010659
2569870000 -0.99261949 -20.54770892 -12.64633551 56.84383702 -14.13268914 47.96604414 -5.52792273 -33.44688886
2574860000 -0.98487185 -20.66705904 -12.64888535 56.87773883 -14.12327601 47.92885048 -5.50793593 -33.47358581
2579850000 -0.98831350 -20.68026621 -12.62406261 56.88542307 -14.10656879 48.04228065 -5.51087288 -33.52564903
2584840000 -0.98710499 -20.71452562 -12.62190864 56.84679448 -14.10174379 47.83836781 -5.52440119 -33.47568439
2589830000 -0.97841887 -20.82869402 -12.61022420 56.75517246 -14.08411589 47.95221834 -5.51614848 -33.54792827
2594820000 -0.97952644 -20.91916327 -12.62108648 56.65428887 -14.07140632 47.96711629 -5.51970867 -33.50120614
2599810000 -0.97369637 -20.86974963 -12.61860088 56.54428819 -14.05500055 47.84496903 -5.53219451 -33.61101662
2604800000 -0.97432717 -20.88648628 -12.60138504 56.50449706 -14.05683459 47.69620162 -5.54250022 -33.54840809
2609790000 -0.98348083 -20.93703501 -12.59276194 56.48639565 -14.06322672 47.77721403 -5.54244238 -33.59120757
2614780000 -0.97615235 -20.92630708 -12.59231215 56.36666863 -14.03191392 47.56303640 -5.54323197 -33.58748280
2619770000 -0.97191293 -20.96498320 -12.57927735 56.34562958 -14.02547092 47.64232706 -5.54195376 -33.55330968
2624760000 -0.98501900 -20.96678588 -12.57481302 56.34312004 -14.01450088 47.57721490 -5.56251005 -33.69410921
2629750000 -0.99206200 -20.95247866 -12.55767912 56.28200798 -13.99431626 47.55155654 -5.55885923 -33.68542137
2634740000 -1.01202489 -21.02429489 -12.57417142 56.15789236 -14.01286707 47.44752239 -5.57625880 -33.74680795
2639730000 -1.01376769 -20.92505336 -12.55729637 56.10954493 -14.01368343 47.46133092 -5.59096832 -33.81562772
2644720000 -1.02211784 -20.93668574 -12.56238621 55.94354651 -13.98292290 47.43752990 -5.59566507 -33.89284881
2649710000 -1.03234896 -20.93753733 -12.56119742 55.92205540 -13.97979592 47.55687292 -5.59536616 -33.91633045
2654700000 -1.04443343 -20.97934772 -12.56306802 55.90550201 -14.00285782 47.39968091 -5.59790810 -33.94400631
2659690000 -1.05040142 -21.00613533 -12.54594175 55.86642517 -13.96653310 47.45683294 -5.60343051 -34.11641247
2664680000 -1.05546278 -21.00003313 -12.56615117 55.94071755 -13.97067212 47.47340094 -5.59393123 -34.19902029
2669670000 -1.05684575 -21.02761794 -12.54048165 55.98249125 -13.93527235 47.38013559 -5.60079319 -34.22952873
2674660000 -1.05546446 -21.07119312 -12.54032111 56.05228258 -13.93693666 47.42963962 -5.59909448 -34.24103666
2679650000 -1.04092738 -21.12768563 -12.50737018 55.87903780 -13.93339865 47.40547691 -5.59719809 -34.18670693
2684640000 -1.05632922 -21.18250364 -12.51541150 55.74001807 -13.90244265 47.39911731 -5.60140521 -34.43166671
2689630000 -1.04349011 -21.29228923 -12.51727863 55.76045921 -13.88316122 47.23826263 -5.59523944 -34.44503766
2694620000 -1.03791164 -21.28578411 -12.48796578 55.62932205 -13.88722043 47.24278068 -5.59862629 -34.43410254
2699610000 -1.04298466 -21.33996636 -12.48678780 55.50857306 -13.88127452 47.23007899 -5.58884047 -34.36932659
2704600000 -1.03016530 -21.34263667 -12.47119285 55.59734460 -13.87532188 47.06660486 -5.60017283 -34.47290643
2709590000 -1.03496418 -21.39487879 -12.48701085 55.41476388 -13.85111019 47.16995884 -5.61527595 -34.36654547
2714580000 -1.02448846 -21.48202655 -12.46277963 55.26115525 -13.82946242 47.12246815 -5.62340797 -34.41763500
2719570000 -1.03237867 -21.44876054 -12.46068361 55.21542513 -13.84874782 46.83222829 -5.61315240 -34.50311070
2724560000 -1.03372876 -21.43581103 -12.43833371 55.27931622 -13.82554092 46.83935088 -5.62068822 -34.48519331
2729550000 -1.03863457 -21.51713436 -12.46559052 55.10835887 -13.80018340 46.96181229 -5.63214837 -34.38603081
2734540000 -1.05198208 -21.45969223 -12.47812057 55.27942742 -13.82517716 46.89318381 -5.63941096 -34.51305766
2739530000 -1.05327555 -21.37407545 -12.46790969 55.31565694 -13.80558730 46.74996958 -5.63750557 -34.65580086
2744520000 -1.06039014 -21.46914221 -12.45671658 54.82819645 -13.80012366 46.72708348 -5.64067254 -34.69110255
2749510000 -1.07148308 -21.48929943 -12.43468031 55.00764799 -13.77441956 46.86137907 -5.65309298 -34.66925834
2754500000 -1.08470350 -21.43234277 -12.44156417 55.08985695 -13.77792897 46.76919629 -5.65755176 -34.80196372
2759490000 -1.09095293 -21.52283020 -12.43177332 54.88508042 -13.78042069 46.78192754 -5.66113789 -34.85542109
2764480000 -1.09691585 -21.45900974 -12.42809505 54.93873044 -13.77708804 46.82041367 -5.67644466 -34.86670746
2769470000 -1.10946886 -21.50406590 -12.42443775 54.91390400 -13.76256974 46.70850484 -5.68318913 -34.98974990
2774460000 -1.11356175 -21.58923317 -12.41401597 54.87456368 -13.72885813 46.63693496 -5.66494794 -35.05915159
2779450000 -1.11355144 -21.55742475 -12.40613462 54.82882843 -13.75086048 46.64601901 -5.68698507 -35.18418130
2784440000 -1.12604824 -21.65091256 -12.41881696 54.75265059 -13.73063941 46.54856925 -5.66889270 -35.07823543
2789430000 -1.11174721 -21.62601618 -12.39685875 54.83634331 -13.71415082 46.68610834 -5.65754249 -35.13242457
2794420000 -1.10326645 -21.74080549 -12.37903227 54.63228793 -13.70110060 46.60315276 -5.66611912 -35.12356675
2799410000 -1.09742047 -21.79662589 -12.37930529 54.66680320 -13.68451038 46.65487791 -5.67477453 -35.10050355
2804400000 -1.10708267 -21.91962464 -12.35953670 54.64315757 -13.67703008 46.50968340 -5.66521329 -35.23795450
2809390000 -1.09295496 -21.91991624 -12.37208414 54.57486508 -13.67700000 46.49313613 -5.67232327 -35.24182137
2814380000 -1.09395778 -21.90298682 -12.35744880 54.37412019 -13.64117117 46.36289093 -5.67755628 -35.25255171
2819370000 -1.09468815 -21.92543292 -12.35852403 54.43434351 -13.65422768 46.42803530 -5.67051922 -35.30753972
2824360000 -1.09481830 -21.94312327 -12.37437037 54.18471799 -13.64900635 46.30179004 -5.68406598 -35.27372891
2829350000 -1.10029017 -21.96603190 -12.34364609 54.30906831 -13.65188277 46.31503030 -5.69399835 -35.31536761
2834340000 -1.09380891 -21.96938109 -12.34286924 54.08948724 -13.61887540 46.34481689 -5.68525239 -35.38544128
2839330000 -1.10730084 -21.97584687 -12.33064578 54.17479328 -13.63077012 46.22952738 -5.71027188 -35.41613841
2844320000 -1.10029329 -21.96855933 -12.32463960 54.11043880 -13.61211641 46.35530193 -5.71410866 -35.43792699
2849310000 -1.11743160 -22.01148916 -12.32771532 54.00943887 -13.60643830 46.09707503 -5.69789970 -35.49287572
2854300000 -1.12809922 -22.01386245 -12.32720609 53.96461865 -13.61131928 46.11661821 -5.73280307 -35.61633030
2859290000 -1.14306617 -21.98958322 -12.33699983 54.02755797 -13.61721734 46.05017238 -5.73600256 -35.58814300
2864280000 -1.14532066 -22.01611953 -12.31530112 53.86636656 -13.60704549 46.12053800 -5.74546801 -35.69157965
2869270000 -1.15423114 -22.03112728 -12.32043523 53.84817733 -13.60172780 46.08580339 -5.74183872 -35.68787115
2874260000 -1.15589752 -22.03713883 -12.29466240 53.85110878 -13.58635652 46.09141997 -5.74591766 -35.75160744
2879250000 -1.16832499 -22.06884272 -12.29625083 53.89620672 -13.56361934 46.19171172 -5.75253945 -35.79177433
2884240000 -1.17786099 -22.13722508 -12.30247552 53.96480323 -13.56363836 46.07696608 -5.72521276 -35.86233944
2889230000 -1.17837860 -22.16130775 -12.29069961 53.85215500 -13.55311266 46.06667328 -5.73740120 -35.92727249
2894220000 -1.16363756 -22.20433602 -12.27763997 53.73970845 -13.52228349 46.03927474 -5.74724809 -36.05072573
2899210000 -1.17017459 -22.22313458 -12.29261913 53.79147335 -13.49610502 45.91919147 -5.73877672 -36.00984157
2904200000 -1.16628445 -22.32992419 -12.27216983 53.63761045 -13.52119649 45.97979974 -5.73760330 -36.02025599
2909190000 -1.15751061 -22.33058602 -12.25849399 53.67574273 -13.51799518 45.91710531 -5.74879099 -36.08924082
2914180000 -1.16109683 -22.42623049 -12.24428817 53.58356912 -13.50353860 45.81981115 -5.75873668 -36.09914572
2919170000 -1.15076113 -22.41951005 -12.25092891 53.61193334 -13.48088540 45.86166479 -5.75252312 -36.08527267
2924160000 -1.15196485 -22.47857392 -12.24316513 53.48621119 -13.45350899 45.86794418 -5.75659646 -36.17339123
2929150000 -1.15395311 -22.50009366 -12.24462375 53.27757154 -13.46451866 45.68459230 -5.75646851 -36.10411401
2934140000 -1.15597056 -22.52252514 -12.24423619 53.38388135 -13.47535047 45.79930245 -5.76663001 -36.13884727
2939130000 -1.16320394 -22.48297140 -12.23106184 53.40910027 -13.47577254 45.70592850 -5.76631150 -36.14528571
2944120000 -1.16257614 -22.51543471 -12.23072466 53.39046952 -13.45426416 45.65115170 -5.78813732 -36.12597474
2949110000 -1.16617387 -22.51423721 -12.23012341 53.20498475 -13.44165908 45.71424157 -5.78067274 -36.17699171
2954100000 -1.17803442 -22.38944839 -12.22091246 53.27289619 -13.45629175 45.59565540 -5.78945100 -36.28311224
2959090000 -1.18484613 -22.50033543 -12.22618632 53.15763485 -13.44207140 45.50031230 -5.79666974 -36.31979922
2964080000 -1.18560419 -22.54530273 -12.21821120 53.10936813 -13.41195983 45.55059090 -5.80354067 -36.39903839
2969070000 -1.19954578 -22.44104144 -12.22250383 53.20471969 -13.42145637 45.61920595 -5.81773876 -36.39835111
2974060000 -1.20531386 -22.49328751 -12.20534742 53.17246261 -13.41276466 45.71538281 -5.81565577 -36.44415647
2979050000 -1.21877240 -22.51354167 -12.20087363 52.99715417 -13.39548789 45.64622769 -5.82097166 -36.58293723
2984040000 -1.21605845 -22.61683215 -12.18113580 53.03712328 -13.38479867 45.52330245 -5.82246813 -36.57140730
2989030000 -1.22387895 -22.57120030 -12.17925530 52.96953609 -13.38734145 45.44300519 -5.82674699 -36.66647894
2994020000 -1.22210453 -22.65502906 -12.17501421 52.95718683 -13.35918382 45.41790900 -5.82259140 -36.76693142
2999010000 -1.22871588 -22.72933567 -12.16562677 52.93759562 -13.35984527 45.40804179 -5.83225501 -36.80442711
3004000000 -1.23200035 -22.73285999 -12.16594346 52.91952786 -13.35580313 45.49319625 -5.82786120 -36.78602844
3008990000 -1.23592691 -22.87760507 -12.15051363 52.83837325 -13.33690402 45.59981789 -5.83438018 -36.82730412
3013980000 -1.22137509 -22.88493343 -12.14387722 52.73791319 -13.32932022 45.24273881 -5.83261280 -36.84690640
3018970000 -1.22310044 -22.91062678 -12.13144697 52.72867759 -13.32605156 45.33808228 -5.82958979 -36.92661394
3023960000 -1.21734610 -22.93404593 -12.13477895 52.79192765 -13.31377127 45.43352142 -5.83220430 -36.88757525
3028950000 -1.21546529 -22.96495901 -12.12775401 52.61988746 -13.30200372 45.22904424 -5.82470276 -36.93274896
3033940000 -1.21312291 -22.97471302 -12.12399914 52.60537612 -13.31259502 45.32648384 -5.83939164 -36.89055416
3038930000 -1.20604607 -23.05346784 -12.11156273 52.55144780 -13.29302563 45.18056191 -5.83907055 -36.93065888
3043920000 -1.21245056 -23.07692975 -12.09819032 52.38217068 -13.26755082 45.19319382 -5.85016349 -36.98731619
3048910000 -1.21184429 -23.04802923 -12.10833371 52.51595448 -13.27488460 45.16995096 -5.85493582 -37.01603196
3053900000 -1.22206583 -23.01998099 -12.11000649 52.37719769 -13.23923752 45.05246977 -5.85516622 -36.99367152
3058890000 -1.22682332 -23.05312962 -12.09462993 52.31887893 -13.23588611 45.19386317 -5.86566767 -37.02389082
3063880000 -1.23305238 -23.01179416 -12.09111273 52.32773049 -13.24087354 44.99391811 -5.86399811 -37.08076364
3068870000 -1.23055002 -23.01934528 -12.08748373 52.32070809 -13.24475728 45.07242384 -5.87592327 -37.12095377
3073860000 -1.25031791 -23.10925382 -12.07186770 52.07728946 -13.23949846 45.11726018 -5.86920179 -37.23071904
3078850000 -1.26162566 -23.02467025 -12.06353397 52.35520304 -13.22934514 45.16046564 -5.88028352 -37.25336044
3083840000 -1.25854184 -23.06754879 -12.06698895 52.27583333 -13.20822125 45.15760128 -5.88865586 -37.25110345
3088830000 -1.27821699 -23.15890967 -12.05190905 52.13473382 -13.18617141 44.81039149 -5.88713522 -37.34875377
3093820000 -1.27133116 -23.10481157 -12.04870528 52.15438949 -13.19540607 44.85520643 -5.88275750 -37.41494263
3098810000 -1.27365495 -23.21405787 -12.04254427 52.01709313 -13.19732449 45.02853536 -5.89884508 -37.36951978
3103800000 -1.28357041 -23.24932808 -12.04303921 52.08420573 -13.18166320 45.05228436 -5.90593937 -37.57098016
3108790000 -1.28127408 -23.33282121 -12.03189078 51.88190811 -13.17261480 44.73260162 -5.91013710 -37.54460834
3113780000 -1.28836905 -23.35666912 -12.03350746 51.88086584 -13.15866627 44.88784483 -5.91098886 -37.62145737
3118770000 -1.28485198 -23.43188575 -11.99995801 51.87925110 -13.14271551 44.77268588 -5.90285718 -37.62138165
3123760000 -1.26125907 -23.45771733 -12.01623042 51.85912365 -13.13621118 44.88602915 -5.90328376 -37.66748962
3128750000 -1.26975994 -23.52149770 -12.01356189 51.76201434 -13.13004943 44.72845846 -5.89731691 -37.59285745
3133740000 -1.25906661 -23.55921130 -11.97222932 51.76740274 -13.10615601 44.92443143 -5.90321698 -37.71547706
3138730000 -1.26663046 -23.62500009 -12.00689714 51.72210288 -13.11457756 44.51569673 -5.90168969 -37.71404955
3143720000 -1.25994240 -23.55847769 -12.00191256 51.82403840 -13.11241921 44.50666183 -5.90647663 -37.74190955
3148710000 -1.25943433 -23.57299733 -11.99922955 51.55586700 -13.08540576 44.61009056 -5.92089406 -37.75509460
3153700000 -1.26517212 -23.64216965 -11.98354027 51.62011840 -13.09550390 44.53495450 -5.91099802 -37.71438747
3158690000 -1.26292441 -23.61422488 -11.96639353 51.59590252 -13.08730513 44.49091682 -5.91714297 -37.77215450
3163680000 -1.27174206 -23.65933685 -11.96384241 51.46691052 -13.08130198 44.42389448 -5.93740520 -37.81315183
3168670000 -1.26729958 -23.61522394 -11.97305371 51.34547687 -13.06753096 44.59964017 -5.94207158 -37.91371149
3173660000 -1.28061932 -23.61137965 -11.96260781 51.42414551 -13.05793967 44.46401432 -5.94407641 -37.89879607
3178650000 -1.29188409 -23.60252671 -11.97116891 51.30781450 -13.05751047 44.59308383 -5.94924013 -37.84764308
3183640000 -1.29040163 -23.59100175 -11.95276917 51.34815688 -13.04744477 44.34441016 -5.94437707 -38.08716884
3188630000 -1.30830088 -23.63543693 -11.94238458 51.35340340 -13.02841919 44.54533931 -5.95617768 -37.99357258
3193620000 -1.31767351 -23.64393989 -11.94513960 51.33523984 -13.04963954 44.33205540 -5.96412195 -37.98282667
3198610000 -1.30498025 -23.73036667 -11.92410109 51.26329908 -13.02509085 44.44678484 -5.97171612 -38.14404325
3203600000 -1.32302299 -23.75137085 -11.92917225 51.24004733 -13.03660897 44.35495987 -5.96839545 -38.11592613
3208590000 -1.32725751 -23.80354184 -11.92404520 51.21827178 -12.98283207 44.30280489 -5.97143695 -38.24510617
3213580000 -1.33356427 -23.87647876 -11.91623689 51.00340582 -13.01048881 44.21115567 -5.97100888 -38.29284846
3218570000 -1.32133678 -23.98671707 -11.91081475 50.97986820 -12.97832773 44.13695125 -5.97354793 -38.31418713
3223560000 -1.33665396 -23.98667178 -11.89954228 50.99447583 -12.97928454 44.16138808 -5.97998001 -38.34217868
3228550000 -1.31155008 -24.13384781 -11.88431131 50.93903511 -12.96912148 44.08010922 -5.97312396 -38.39278922
3233540000 -1.31637449 -24.14873426 -11.89373099 50.89400088 -12.96043715 44.20233960 -5.97561808 -38.51611168
3238530000 -1.31351070 -24.13239823 -11.90196784 50.90236843 -12.93272348 44.12704209 -5.97841087 -38.43822016
3243520000 -1.30207371 -24.20881722 -11.87515152 50.77460313 -12.95661019 44.07512156 -5.98707370 -38.44724834
3248510000 -1.30629873 -24.28008704 -11.87114779 50.71882335 -12.95491418 44.09754947 -5.98200991 -38.46854995
3253500000 -1.31095155 -24.23010840 -11.87353071 50.83158457 -12.91993609 44.00396719 -5.99987502 -38.51587287
3258490000 -1.29737511 -24.26971484 -11.85411699 50.64884899 -12.91101558 43.83720535 -5.99961439 -38.56786135
3263480000 -1.30020851 -24.28026265 -11.86665803 50.58551784 -12.92452564 43.80512016 -6.00508253 -38.56174131
3268470000 -1.30947488 -24.27646759 -11.84030145 50.52892920 -12.92019430 43.94031990 -5.99301991 -38.50030031
3273460000 -1.31823691 -24.21982125 -11.84138957 50.48030950 -12.91381073 43.90961846 -6.01039325 -38.58037916
3278450000 -1.32419112 -24.22419035 -11.83477139 50.46287660 -12.90309401 43.86129871 -6.02117638 -38.60448264
3283440000 -1.33669187 -24.30578136 -11.84381312 50.48814045 -12.88826862 43.78256888 -6.02559687 -38.71336594
3288430000 -1.33196661 -24.27674970 -11.83908429 50.53322611 -12.88949864 43.84712763 -6.02572723 -38.73608390
3293420000 -1.34698471 -24.30022103 -11.83863372 50.37685749 -12.88115554 43.84113869 -6.03559059 -38.75527746
3298410000 -1.35334979 -24.35326861 -11.81579070 50.34460918 -12.86474925 43.80795289 -6.04342295 -38.83994854
3303400000 -1.36328472 -24.39913473 -11.82932267 50.27354615 -12.86691525 43.70492502 -6.04334663 -38.90890588
3308390000 -1.36159312 -24.42125876 -11.81732494 50.34199324 -12.84539824 43.80041642 -6.04563721 -38.92210003
3313380000 -1.36455549 -24.48828511 -11.80183475 50.27609479 -12.85400804 43.61986446 -6.05383518 -38.99657651
3318370000 -1.36922884 -24.59098871 -11.77771524 50.03927969 -12.83995346 43.55729103 -6.05352775 -39.01474679
3323360000 -1.36935998 -24.73857791 -11.78725850 50.06749283 -12.81885164 43.45386123 -6.05286213 -39.02217015
3328350000 -1.36326945 -24.69001920 -11.79886105 50.18851851 -12.83037327 43.52399067 -6.04615173 -39.10667042
3333340000 -1.36128760 -24.77761939 -11.77288941 50.05503123 -12.79449808 43.45550637 -6.05151786 -39.17611373
3338330000 -1.35461630 -24.83054241 -11.77108046 50.03905384 -12.79543803 43.46919560 -6.06086890 -39.03693561
3343320000 -1.35594563 -24.88578305 -11.75874779 49.90169031 -12.79512333 43.39998382 -6.05946101 -39.14779037
3348310000 -1.35438532 -24.94985987 -11.74519439 49.91021228 -12.76956264 43.42544174 -6.05211997 -39.20258702
3353300000 -1.34631709 -24.93439305 -11.75841459 49.89255991 -12.78929071 43.39318741 -6.06144289 -39.13391039
3358290000 -1.34426753 -24.93734740 -11.75147460 49.88203314 -12.76949975 43.27978560 -6.06479897 -39.16339040
3363280000 -1.34905778 -24.92275196 -11.74772012 49.71249359 -12.78115966 43.31435185 -6.07731237 -39.25606367
3368270000 -1.34715289 -25.02950509 -11.75723692 49.74703021 -12.75775410 43.23330135 -6.07788638 -39.30745010
3373260000 -1.34715234 -24.99372526 -11.73559089 49.78773525 -12.75302246 43.23432714 -6.07726674 -39.27949603
3378250000 -1.35952811 -24.99614356 -11.72679677 49.52425452 -12.75442482 43.29557679 -6.09673275 -39.26973551
3383240000 -1.35838399 -25.02452067 -11.72390101 49.56603025 -12.73922298 43.16406962 -6.07642121 -39.35620517
3388230000 -1.37185263 -24.96357694 -11.73223686 49.54594776 -12.73587757 43.26461117 -6.10323707 -39.37542189
3393220000 -1.37636890 -25.00005230 -11.71226234 49.57737114 -12.72928750 43.18502976 -6.09895927 -39.48305531
3398210000 -1.37686475 -24.98690369 -11.71888472 49.55503273 -12.71437161 43.11868702 -6.10149123 -39.43467866
3403200000 -1.38861610 -25.03959160 -11.70630029 49.60125419 -12.71178322 43.03024403 -6.10478102 -39.50095443
3408190000 -1.39405732 -25.12033052 -11.70697505 49.52396383 -12.69331292 43.03610176 -6.10997590 -39.57959194
3413180000 -1.40324483 -25.19424380 -11.70425816 49.37332243 -12.70083866 42.97946281 -6.12942168 -39.57813310
3418170000 -1.39936162 -25.20274979 -11.68151335 49.40615548 -12.68519671 42.91816044 -6.12078291 -39.64210618
3423160000 -1.40751972 -25.28896460 -11.68368282 49.29197774 -12.68980064 42.99896070 -6.11397043 -39.65001576
3428150000 -1.40454414 -25.35703601 -11.67808308 49.19302594 -12.68583258 42.93513554 -6.13218421 -39.72884555
3433140000 -1.41002715 -25.43573806 -11.67419568 49.19387856 -12.68418579 42.99468987 -6.13160071 -39.79487175
3438130000 -1.40989757 -25.45988671 -11.67427531 49.16160433 -12.67440621 42.81931434 -6.13539831 -39.75216246
3443120000 -1.40802012 -25.58443427 -11.66814577 49.21811345 -12.65674117 42.92871382 -6.11656058 -39.84636940
3448110000 -1.39842673 -25.63493749 -11.66837341 49.08879783 -12.67278753 42.82387496 -6.11671209 -39.77568152
3453100000 -1.40136840 -25.67828138 -11.66281376 48.95314639 -12.62729155 42.80783129 -6.13883114 -39.83779998
3458090000 -1.39471784 -25.68867632 -11.65235199 48.92462306 -12.63994752 42.72243749 -6.14014407 -39.84303161
3463080000 -1.39386916 -25.74416792 -11.64505720 48.83040900 -12.62470102 42.74026708 -6.14426459 -39.91811194
3468070000 -1.38931574 -25.75201048 -11.65087680 48.92151401 -12.61813741 42.65388246 -6.13786163 -39.90902468
3473060000 -1.39556886 -25.74862853 -11.64451025 48.95645200 -12.62455736 42.75253965 -6.15237610 -39.99433667
3478050000 -1.38568419 -25.75663608 -11.63358137 48.67297088 -12.63660989 42.62046460 -6.15924628 -40.07694846
3483040000 -1.39011535 -25.76876228 -11.63310867 48.72298221 -12.61192001 42.55576024 -6.16120083 -39.99657789
3488030000 -1.40264528 -25.76275613 -11.62150414 48.56937346 -12.58652889 42.55405629 -6.15931147 -40.06099366
3493020000 -1.40260098 -25.71752100 -11.63693710 48.73711773 -12.60071505 42.52246390 -6.17805932 -40.18076787
3498010000 -1.42021404 -25.77110033 -11.61646528 48.73235959 -12.59576047 42.50745360 -6.16718694 -40.09554802
3503000000 -1.42847555 -25.76951793 -11.62481133 48.67180713 -12.59445520 42.46356681 -6.17867487 -40.06166287
3507990000 -1.43400556 -25.82917013 -11.62029748 48.67675289 -12.57867963 42.56196742 -6.17069112 -40.17218124
3512980000 -1.44005474 -25.82657238 -11.61419491 48.51668697 -12.58042487 42.44551109 -6.19733788 -40.28737361
3517970000 -1.44453817 -25.89253245 -11.61415726 48.45809269 -12.56069890 42.30824614 -6.17146164 -40.30080420
3522960000 -1.44198723 -25.98025031 -11.60344847 48.46859144 -12.56442766 42.36620798 -6.18519983 -40.30866041
3527950000 -1.45069849 -26.03838171 -11.58507803 48.40213800 -12.55200588 42.50798481 -6.19660399 -40.29913203
3532940000 -1.45165065 -26.11539287 -11.58818845 48.32338991 -12.56062383 42.20918879 -6.19960734 -40.40806123
3537930000 -1.45051367 -26.19071021 -11.58023157 48.34267669 -12.53943394 42.37221603 -6.20456532 -40.34909514
3542920000 -1.44920924 -26.20160970 -11.57572830 48.25736571 -12.53013284 42.33495091 -6.20197612 -40.45962892
3547910000 -1.44592326 -26.33711500 -11.56510062 48.27191103 -12.52003686 42.27452999 -6.19176395 -40.40441744
3552900000 -1.44027760 -26.37572260 -11.56414835 48.18481514 -12.51599396 42.26690455 -6.20414869 -40.50490899
3557890000 -1.43288807 -26.43708458 -11.56736912 48.13125301 -12.51355777 42.18273071 -6.20916653 -40.50748124
3562880000 -1.42956184 -26.45291867 -11.56388535 48.08080743 -12.49117718 42.00244103 -6.20855807 -40.59927672
3567870000 -1.44060479 -26.50254822 -11.54415271 47.99322298 -12.50436727 42.10710119 -6.20696632 -40.68261169
3572860000 -1.43624010 -26.54007011 -11.54894678 47.95929567 -12.49689912 41.95028687 -6.22576542 -40.54427823
3577850000 -1.42686055 -26.50413940 -11.53898110 48.00102525 -12.49060045 41.96182764 -6.21982105 -40.64485652
3582840000 -1.43306561 -26.58166877 -11.54981588 47.98714724 -12.48173565 41.99462310 -6.23356805 -40.64248125
3587830000 -1.43817485 -26.49453414 -11.55264898 47.84494780 -12.48519082 41.96787763 -6.22564471 -40.75038763
3592820000 -1.44267288 -26.51839706 -11.52314724 47.93415962 -12.50055312 41.91097257 -6.24838565 -40.74576155
3597810000 -1.44403112 -26.56224324 -11.53078214 47.83970505 -12.47550754 41.74360444 -6.23003544 -40.78701413
3602800000 -1.45512358 -26.59491036 -11.54154433 47.91758491 -12.45789001 41.94737954 -6.25049928 -40.80954249
3607790000 -1.45347406 -26.52579303 -11.51347756 47.90011064 -12.46996617 41.93327501 -6.24561289 -40.94269399
3612780000 -1.45742761 -26.56119180 -11.51668651 47.78436441 -12.45285554 41.81271210 -6.26169428 -40.92270787
3617770000 -1.47765363 -26.59044239 -11.51497521 47.73501795 -12.44319071 41.83829648 -6.25464327 -40.93503903
3622760000 -1.48561008 -26.60595002 -11.51159335 47.72912811 -12.46965559 41.73238345 -6.26096201 -41.01643058
3627750000 -1.48364826 -26.69222563 -11.51057119 47.60700421 -12.44654527 41.80411469 -6.26350444 -41.04568241
3632740000 -1.48665797 -26.77093260 -11.51071828 47.68591823 -12.44508507 41.76736534 -6.26245701 -40.98387711
3637730000 -1.49732851 -26.81378684 -11.49516950 47.61404304 -12.42653390 41.78467384 -6.26960254 -41.16484911
3642720000 -1.49204264 -26.88293637 -11.49683281 47.49249076 -12.41452086 41.72691757 -6.26727372 -41.13241764
3647710000 -1.48422549 -27.02129460 -11.50815703 47.52887655 -12.40160879 41.75294312 -6.27324841 -41.21662234
3652700000 -1.49157784 -27.09120300 -11.51526494 47.47069993 -12.41057071 41.56149020 -6.27520161 -41.23430242
3657690000 -1.48938766 -27.12036845 -11.47577228 47.39018678 -12.40477886 41.59026895 -6.27217031 -41.25676834
3662680000 -1.47890744 -27.21879657 -11.46268429 47.39820108 -12.39177367 41.55115615 -6.27182345 -41.22716025
3667670000 -1.48063535 -27.24196564 -11.46885977 47.33803782 -12.39057581 41.51885078 -6.27932357 -41.28195880
3672660000 -1.47717337 -27.26695024 -11.45927190 47.22014888 -12.38234472 41.56691258 -6.26856501 -41.28816580
3677650000 -1.47789343 -27.28341871 -11.46266447 47.20984113 -12.38192107 41.37858362 -6.29431943 -41.27497559
3682640000 -1.48506295 -27.28738183 -11.47063715 47.23567178 -12.38022711 41.35468059 -6.28088301 -41.32778831
3687630000 -1.47244863 -27.33112879 -11.45015083 47.13398869 -12.36473968 41.32335378 -6.29030687 -41.39884247
3692620000 -1.48226941 -27.37921328 -11.46009965 47.01834711 -12.36676408 41.39039085 -6.28515909 -41.28319941
3697610000 -1.48368309 -27.33420475 -11.47609969 47.02724715 -12.36319994 41.32095313 -6.31365876 -41.36108429
3702600000 -1.48200348 -27.36338036 -11.44049226 47.06445655 -12.36003740 41.31367258 -6.30868242 -41.39131490
3707590000 -1.49335557 -27.29381066 -11.44416458 47.05133091 -12.35819240 41.17291119 -6.30482909 -41.47542848
3712580000 -1.49414801 -27.22259357 -11.42894232 46.97124475 -12.33334170 41.28137349 -6.32452037 -41.54723319
3717570000 -1.50905713 -27.41600320 -11.43512791 46.95728115 -12.33587688 41.20965240 -6.31569596 -41.53256375
3722560000 -1.50503890 -27.38793027 -11.43658297 46.94894485 -12.32753343 41.25084181 -6.32083575 -41.56415856
3727550000 -1.51168515 -27.42500683 -11.44098934 46.88536947 -12.31913487 41.33767237 -6.32625118 -41.63064904
3732540000 -1.52516618 -27.45796769 -11.43487791 46.88682406 -12.31216567 41.10682323 -6.32711223 -41.67267685
3737530000 -1.51923659 -27.50876161 -11.41030134 46.83938429 -12.31034410 41.20087197 -6.32660549 -41.71751178
3742520000 -1.53040009 -27.61234682 -11.41949275 46.75936674 -12.30273303 41.20232374 -6.34090226 -41.72783658
3747510000 -1.54391827 -27.66402037 -11.40648964 46.67409330 -12.30856909 41.16841047 -6.33833338 -41.73387440
3752500000 -1.52956671 -27.69970134 -11.39791267 46.68385904 -12.28850408 41.15953896 -6.34094778 -41.79391140
3757490000 -1.53526474 -27.81861198 -11.39621115 46.63907081 -12.27998762 41.09492954 -6.33865067 -41.88204238
3762480000 -1.52258797 -27.85212174 -11.36615303 46.66473755 -12.27909241 40.94324981 -6.33964840 -41.95272065
3767470000 -1.53093175 -27.92515204 -11.39345299 46.61557129 -12.27050287 41.04578435 -6.36074213 -41.89037033
3772460000 -1.51835373 -27.97843095 -11.39150113 46.55087335 -12.26229216 40.90595003 -6.34325244 -41.92899229
3777450000 -1.51600600 -28.02729465 -11.37726115 46.43930154 -12.24771432 40.87224446 -6.34705345 -41.87493449
3782440000 -1.51208160 -28.09631014 -11.37047171 46.42299153 -12.24703218 40.96054945 -6.35003449 -42.03857616
3787430000 -1.51439310 -27.98784867 -11.36895417 46.48333919 -12.25722203 40.94197359 -6.35525667 -41.96998450
3792420000 -1.51862290 -28.08945458 -11.37223183 46.31269237 -12.24456353 40.78658783 -6.35463364 -42.00276531
3797410000 -1.51632254 -28.09014293 -11.37504974 46.35534409 -12.24739666 40.76137741 -6.36996262 -42.03643448
3802400000 -1.52238128 -28.12970484 -11.36084103 46.21509680 -12.22868027 40.67975446 -6.36453560 -42.06112037
3807390000 -1.52482953 -28.11625193 -11.36423603 46.29142242 -12.23242394 40.74510813 -6.37034679 -42.12368082
3812380000 -1.53413050 -28.12119225 -11.35818511 46.22979583 -12.22885074 40.68454043 -6.38374166 -42.09648984
3817370000 -1.54035193 -28.05842796 -11.35605767 46.15156272 -12.23804760 40.65226816 -6.37193023 -42.12086118
3822360000 -1.54424324 -28.09586853 -11.36798865 46.11979304 -12.22549611 40.81515797 -6.38372859 -42.14366886
3827350000 -1.55527794 -28.15825273 -11.34631174 46.15353677 -12.21189102 40.60511254 -6.38280387 -42.30385541
3832340000 -1.54931244 -28.14655165 -11.34382957 46.14859575 -12.21289212 40.59519979 -6.39685084 -42.25593964
3837330000 -1.56599607 -28.20577828 -11.34677068 46.13941095 -12.21360811 40.55181260 -6.40042879 -42.28517645
3842320000 -1.56315265 -28.23818319 -11.33764668 45.98165104 -12.17755003 40.64849136 -6.40306704 -42.40796419
3847310000 -1.57483667 -28.24343912 -11.34993492 46.10629970 -12.18502007 40.51259011 -6.39826937 -42.38861407
3852300000 -1.58792560 -28.33927079 -11.33528491 46.01149736 -12.17568759 40.65117194 -6.40522566 -42.48342357
3857290000 -1.58265047 -28.36955975 -11.33090033 45.90943440 -12.17579611 40.51646950 -6.40602763 -42.42946915
3862280000 -1.58228917 -28.48885664 -11.31957414 45.91648558 -12.17245807 40.55690054 -6.39312107 -42.46674709
3867270000 -1.58015110 -28.50832635 -11.31305217 45.92107546 -12.15874003 40.40316096 -6.41652978 -42.43437440
3872260000 -1.57115692 -28.56821328 -11.32387005 45.71815574 -12.15421721 40.45288758 -6.40445522 -42.51609747
3877250000 -1.56943672 -28.62701336 -11.31203165 45.72828792 -12.16827416 40.31801922 -6.41892290 -42.59479151
3882240000 -1.57428607 -28.70353304 -11.30230235 45.65775017 -12.14953025 40.25768544 -6.41381884 -42.64056570
3887230000 -1.56356216 -28.73427671 -11.28627380 45.75863469 -12.14440841 40.34947620 -6.41012481 -42.64884119
3892220000 -1.56760606 -28.67092813 -11.28344038 45.61301454 -12.13327278 40.34448346 -6.41117877 -42.50612545
3897210000 -1.57412428 -28.69630676 -11.29137066 45.56921620 -12.13190967 40.28747653 -6.43276744 -42.65127378
3902200000 -1.56689951 -28.78346127 -11.28270942 45.66573815 -12.14581220 40.23499928 -6.43044026 -42.68659045
3907190000 -1.58338848 -28.80803117 -11.28919218 45.44306447 -12.13225927 40.26123911 -6.44104702 -42.65753733
3912180000 -1.57777719 -28.80746755 -11.27761937 45.41728922 -12.13180442 40.16092236 -6.43271406 -42.75837569
3917170000 -1.57613500 -28.71511020 -11.26715723 45.42073760 -12.11731046 40.04114326 -6.43784739 -42.80375848
3922160000 -1.58706605 -28.74505657 -11.27301598 45.35094397 -12.11019813 40.09565159 -6.43688033 -42.75435087
3927150000 -1.57977658 -28.74450623 -11.26929784 45.49105630 -12.11369227 40.14681023 -6.44529891 -42.73994303
3932140000 -1.59310155 -28.78609220 -11.27363597 45.36758990 -12.11236709 40.07223437 -6.45876855 -42.91314356
3937130000 -1.60540266 -28.79147314 -11.26630852 45.34695433 -12.10735763 40.17517473 -6.45124841 -42.92513760
3942120000 -1.60673549 -28.83662226 -11.26693972 45.33324940 -12.09594317 39.94574006 -6.46662211 -42.99176362
3947110000 -1.60940288 -28.83618651 -11.24367013 45.30493040 -12.08009139 40.08474431 -6.45841363 -42.92452403
3952100000 -1.61773694 -28.85535432 -11.25116167 45.25537365 -12.06676146 39.98513435 -6.48003404 -43.03305091
3957090000 -1.61575806 -28.92346239 -11.23983884 45.34352512 -12.08989993 40.02554025 -6.47121354 -43.01265317
3962080000 -1.62485516 -28.99223807 -11.24062759 45.24477931 -12.05998051 40.00347898 -6.47303877 -43.03972051
3967070000 -1.63427973 -29.06278452 -11.25151400 45.20108618 -12.07177187 39.98369548 -6.46137200 -43.13371842
3972060000 -1.62496314 -29.09630920 -11.22830430 45.14781222 -12.05687500 39.92044172 -6.48860715 -43.17101238
3977050000 -1.61364831 -29.15557392 -11.22400180 45.13515803 -12.05376114 39.81434592 -6.47581731 -43.06283103
3982040000 -1.62165743 -29.18648299 -11.23008370 45.13786695 -12.04521472 39.85471217 -6.49274116 -43.18863232
3987030000 -1.61988395 -29.23026173 -11.22093074 45.00492546 -12.04466486 39.82667998 -6.49236483 -43.14214143
3992020000 -1.62014931 -29.28163993 -11.22135821 44.98021366 -12.03854294 39.69922537 -6.46857584 -43.18546708
3997010000 -1.61384948 -29.33292006 -11.23391706 44.90105595 -12.04802588 39.65931080 -6.47471393 -43.19751089
4002000000 -1.61441958 -29.31006890 -11.19487451 44.91169002 -12.02608850 39.67231364 -6.49474773 -43.36017598
4006990000 -1.60903648 -29.30674874 -11.20727367 45.00761322 -12.02568597 39.73977303 -6.48950838 -43.28180853
4011980000 -1.61255280 -29.38413833 -11.21882581 44.90838617 -12.02888901 39.65008246 -6.50348696 -43.32979652
4016970000 -1.62297659 -29.35423225 -11.20683064 44.73889020 -12.01154206 39.49221509 -6.50377733 -43.48097958
4021960000 -1.61523419 -29.35467490 -11.19648800 44.74541936 -12.03208448 39.49789732 -6.51048959 -43.51948144
4026950000 -1.62659924 -29.29722291 -11.21281064 44.78658085 -12.02641008 39.56612662 -6.51248478 -43.54076719
4031940000 -1.62426634 -29.25153690 -11.20023035 44.65152742 -12.00401897 39.53710925 -6.50326787 -43.54907811
4036930000 -1.63679019 -29.31225610 -11.20484133 44.70474942 -11.98759070 39.51177690 -6.50570510 -43.54452853
4041920000 -1.63498621 -29.30390006 -11.18409477 44.58648051 -11.98500690 39.57252963 -6.51025455 -43.57250307
4046910000 -1.64446816 -29.33967204 -11.18534366 44.61192905 -12.00594247 39.59824507 -6.51985643 -43.53861580
4051900000 -1.65635582 -29.32405689 -11.17503328 44.53877701 -11.97951509 39.49457964 -6.53238118 -43.59962393
4056890000 -1.66303778 -29.33951045 -11.15353828 44.69481359 -11.99806487 39.58742576 -6.53515421 -43.57098139
4061880000 -1.66257873 -29.41026434 -11.19022850 44.57454503 -11.97672530 39.34044673 -6.52789534 -43.66302548
4066870000 -1.65748302 -29.40795986 -11.17746720 44.52128618 -11.97031347 39.35404007 -6.53476905 -43.70509677
4071860000 -1.66242143 -29.55813433 -11.17458535 44.41661969 -11.98345448 39.29243615 -6.54834217 -43.78175108
4076850000 -1.66711428 -29.53254676 -11.17867373 44.35433184 -11.96907617 39.39719912 -6.52530110 -43.72999069
4081840000 -1.65920873 -29.65321613 -11.14756774 44.37408076 -11.94584608 39.33688913 -6.52515396 -43.74408500
4086830000 -1.66358551 -29.74453651 -11.15448846 44.32716193 -11.95737580 39.33341314 -6.51988401 -43.83727599
4091820000 -1.66059830 -29.71839052 -11.14591455 44.32178672 -11.94056953 39.20990613 -6.55850235 -43.83498357
4096810000 -1.65309769 -29.85420182 -11.13898440 44.22158440 -11.94573446 39.21128709 -6.55722882 -43.85148650
4101800000 -1.65250907 -29.84303472 -11.13285519 44.19479407 -11.94092801 39.24903587 -6.56252453 -43.90160888
4106790000 -1.65797501 -29.81403284 -11.15524117 44.32415035 -11.93455806 39.11555477 -6.56488154 -43.91060292
4111780000 -1.65590860 -29.87155448 -11.13579947 44.11610758 -11.93203641 39.12004172 -6.53738735 -44.03702776
4116770000 -1.65651789 -29.90828034 -11.13253736 44.01179569 -11.92414312 38.94012268 -6.55638982 -43.93167496
4121760000 -1.65859208 -29.86746048 -11.14414340 43.88957298 -11.93472122 38.97330950 -6.56170504 -43.93384913
4126750000 -1.65709125 -29.82224780 -11.11869597 43.97700292 -11.92103175 39.00329133 -6.55347194 -44.07270515
4131740000 -1.66030085 -29.88334309 -11.12531197 43.88710243 -11.88382208 39.12407065 -6.56852330 -44.10532489
4136730000 -1.67228512 -29.83645872 -11.12817960 44.05152560 -11.91627247 38.98736134 -6.58702487 -44.16827520
4141720000 -1.67107912 -29.77769044 -11.12160960 43.97705872 -11.90968919 38.94929556 -6.57847233 -44.07129534
4146710000 -1.68094975 -29.80014632 -11.12863703 44.00074017 -11.88492117 38.85149024 -6.57712105 -44.12697451
4151700000 -1.69110176 -29.83336115 -11.12737238 43.88122986 -11.87952922 38.93107980 -6.56726091 -44.14585629
4156690000 -1.68828726 -29.80046866 -11.11943419 43.88434261 -11.88419810 39.06988337 -6.57327164 -44.27039086
4161680000 -1.70582591 -29.92555326 -11.11366026 43.85584970 -11.88857816 39.00297370 -6.57346478 -44.19909347
4166670000 -1.69606573 -29.95227987 -11.10246866 43.78529982 -11.89895944 38.96660338 -6.59192259 -44.25947648
4171660000 -1.71312860 -29.97793569 -11.09629665 43.77967602 -11.86105211 38.74787465 -6.58195623 -44.41726115
4176650000 -1.69930344 -30.05339985 -11.09065741 43.81376407 -11.86321008 38.77439780 -6.59706320 -44.38802560
4181640000 -1.71022337 -30.08553567 -11.10980213 43.66947313 -11.87268207 38.87929242 -6.59367079 -44.39482716
4186630000 -1.70864266 -30.11476432 -11.08575071 43.73417871 -11.85909697 38.83725652 -6.60761953 -44.52694598
4191620000 -1.70239724 -30.23197736 -11.09136628 43.65846711 -11.85960600 38.74736624 -6.60495192 -44.41043800
4196610000 -1.69889221 -30.18238557 -11.08639156 43.63468649 -11.85074741 38.87375700 -6.59380108 -44.35690660
4201600000 -1.71250758 -30.30095269 -11.07723341 43.57871410 -11.84878229 38.75107844 -6.61084909 -44.42026301
4206590000 -1.69636345 -30.30348448 -11.09256206 43.45347401 -11.84165617 38.69441516 -6.63199615 -44.49757933
4211580000 -1.69281055 -30.29659552 -11.07603420 43.55388297 -11.84656320 38.72110429 -6.61702796 -44.57699009
4216570000 -1.70236011 -30.35004158 -11.07777484 43.47045866 -11.84150142 38.48739154 -6.62711897 -44.57436388
4221560000 -1.69328476 -30.29501447 -11.06727826 43.45924756 -11.81690330 38.53251096 -6.61705244 -44.65012579
4226550000 -1.69755152 -30.26378177 -11.07900040 43.47000000 -11.83161389 38.58739438 -6.64231637 -44.62360942
4231540000 -1.71022508 -30.32276675 -11.07871826 43.31773607 -11.85359775 38.65843303 -6.63581399 -44.70222270
4236530000 -1.70814936 -30.29272284 -11.06159356 43.39956199 -11.82435538 38.52623346 -6.62893783 -44.76303329
4241520000 -1.71871789 -30.22653043 -11.06278973 43.27525231 -11.82477432 38.46252545 -6.63465451 -44.66345233
4246510000 -1.71405667 -30.26990089 -11.07419731 43.30251103 -11.81665771 38.39993821 -6.63285026 -44.77083505
4251500000 -1.71557833 -30.25142794 -11.04874878 43.33477119 -11.82893716 38.56986883 -6.63847996 -44.72756952
4256490000 -1.73460565 -30.28636948 -11.04504110 43.25968394 -11.79032281 38.51406039 -6.62818611 -44.77555069
4261480000 -1.73654296 -30.31364371 -11.04107979 43.31926195 -11.77984607 38.55491475 -6.63523973 -44.89384575
4266470000 -1.73999368 -30.30630447 -11.02002235 43.18008551 -11.79820101 38.46538907 -6.65229270 -44.91938412
4271460000 -1.74553664 -30.30664091 -11.02832998 43.22619347 -11.78604369 38.39191431 -6.65225927 -44.97929034
4276450000 -1.74292841 -30.37289522 -11.02635888 43.27161824 -11.77531646 38.48423563 -6.65499382 -44.93502291
4281440000 -1.75148518 -30.43876420 -11.03499457 43.19052657 -11.77032975 38.40482088 -6.63898359 -44.94458198
4286430000 -1.75610692 -30.56941449 -11.03408294 43.04598766 -11.77950466 38.40969690 -6.66065000 -45.02946486
4291420000 -1.74585993 -30.56643349 -11.01414574 43.11370771 -11.76047381 38.27333314 -6.64751647 -45.03452588
4296410000 -1.74651114 -30.59608884 -11.01368399 42.97616556 -11.76534325 38.25531099 -6.66550419 -45.10846273
4301400000 -1.74870473 -30.62211434 -11.01201903 42.91054236 -11.77114385 38.29415425 -6.66890472 -44.98878069
4306390000 -1.74739633 -30.70169007 -11.00087741 43.01455336 -11.74095077 38.19701714 -6.65932103 -45.20083812
4311380000 -1.74662781 -30.69388115 -11.00551100 42.81553350 -11.77016094 38.20897979 -6.67912620 -45.15746686
4316370000 -1.74924565 -30.74780819 -11.03736141 42.86759367 -11.75524950 38.14099315 -6.68356053 -45.14886118
4321360000 -1.74437876 -30.76150698 -11.00748400 42.83798346 -11.74000809 38.11247865 -6.67769686 -45.15686218
4326350000 -1.73906664 -30.73333317 -11.00625651 42.89609144 -11.73395937 38.08833045 -6.68562036 -45.25223202
4331340000 -1.74945487 -30.74126711 -11.00140498 42.81921350 -11.74734032 38.08948621 -6.69474784 -45.25026436
4336330000 -1.75447787 -30.72922170 -10.99977589 42.80425977 -11.74785208 38.06451066 -6.69642796 -45.33923297
4341320000 -1.73646596 -30.75754336 -10.99777783 42.64657186 -11.73500277 37.99017181 -6.68769255 -45.37069417
4346310000 -1.75585226 -30.66567864 -10.99649358 42.67749679 -11.73775390 37.96198177 -6.69676163 -45.42209642
4351300000 -1.75432444 -30.67579915 -10.99861204 42.59362852 -11.71443179 38.16557612 -6.70048454 -45.41669610
4356290000 -1.77152826 -30.74456956 -10.98902406 42.71369206 -11.73807648 37.97589827 -6.69548627 -45.43475518
4361280000 -1.76951891 -30.76084653 -10.98086598 42.57610815 -11.71322154 37.86507182 -6.69047308 -45.51167202
4366270000 -1.77315821 -30.73481475 -10.96727392 42.78953904 -11.70608318 37.90456900 -6.70691585 -45.47377274
4371260000 -1.78140572 -30.73801500 -10.98172082 42.47147979 -11.71539666 37.89045794 -6.69336489 -45.52661450
4376250000 -1.79329247 -30.77053364 -10.97469193 42.48513127 -11.70352128 37.88910817 -6.71854001 -45.57008553
4381240000 -1.77753743 -30.78793874 -10.96389173 42.55516316 -11.69235613 37.93364421 -6.70611310 -45.49496340
4386230000 -1.78296173 -30.84787066 -10.96092312 42.52859267 -11.70327263 37.94967609 -6.70339096 -45.61157784
4391220000 -1.79341377 -30.92200070 -10.95563065 42.40618797 -11.67271378 37.77838857 -6.69743899 -45.57956420
4396210000 -1.80043916 -30.94731399 -10.96895065 42.43533792 -11.67757555 37.85416900 -6.71099389 -45.62325105
4401200000 -1.79914235 -31.02831013 -10.94369068 42.44304598 -11.68862060 37.84828848 -6.70705534 -45.67501755
4406190000 -1.79651197 -31.09213004 -10.94496360 42.40614184 -11.67979062 37.85548958 -6.72608798 -45.66063375
4411180000 -1.78801727 -31.07132179 -10.94386233 42.44079332 -11.68372765 37.87705499 -6.73084369 -45.72583650
4416170000 -1.78875821 -31.13827973 -10.94705756 42.31513784 -11.67615505 37.83509494 -6.73739829 -45.71522451
4421160000 -1.79087020 -31.11820571 -10.93716420 42.36741375 -11.66428432 37.69286040 -6.72854713 -45.73769545
4426150000 -1.79348997 -31.09288299 -10.93937092 42.31690242 -11.67572772 37.76350249 -6.75302827 -45.82395288
4431140000 -1.78639958 -31.18594720 -10.91790081 42.16362076 -11.66291058 37.61653168 -6.75615044 -45.84224418
4436130000 -1.78823554 -31.12708555 -10.92973463 42.12305334 -11.64455855 37.68088799 -6.74531301 -45.93425439
4441120000 -1.78657967 -31.18210998 -10.92585340 42.07607722 -11.64805281 37.62097233 -6.76109181 -45.96772037
4446110000 -1.79330459 -31.13950295 -10.93298463 42.10249901 -11.64790458 37.52022543 -6.76296937 -45.98214708
4451100000 -1.79179325 -31.12058064 -10.92047857 42.04039495 -11.65215544 37.54450218 -6.75718938 -46.05893520
4456090000 -1.79486647 -31.07714468 -10.91319056 42.04948237 -11.63207884 37.45629842 -6.76325972 -46.05482171
4461080000 -1.80487279 -31.13075129 -10.91259591 41.99281455 -11.64259027 37.57439247 -6.75265580 -46.10618653
4466070000 -1.80964637 -31.12150397 -10.92350802 42.08594434 -11.62417928 37.54718568 -6.75227611 -46.19564868
4471060000 -1.80827279 -31.15724596 -10.89279927 42.02720446 -11.61670954 37.51765504 -6.77181463 -46.09590720
4476050000 -1.81024835 -31.16600439 -10.90599585 41.97017991 -11.61671549 37.43067095 -6.76491910 -46.16241710
4481040000 -1.82437477 -31.21724392 -10.90234984 41.95325490 -11.61772890 37.49448364 -6.77406829 -46.11549706
4486030000 -1.83240214 -31.17760499 -10.90814185 41.96813173 -11.62650836 37.44658745 -6.77456145 -46.19814740
4491020000 -1.83744176 -31.24076005 -10.89582228 41.95899418 -11.62257251 37.44575963 -6.78266581 -46.18932674
4496010000 -1.84096715 -31.34333691 -10.90955552 41.88844454 -11.59868256 37.47970235 -6.78060193 -46.18857144
4501000000 -1.84049497 -31.37898975 -10.88653410 41.95294217 -11.58828331 37.54393082 -6.76442849 -46.18464587
4505990000 -1.84244437 -31.43190572 -10.88556818 41.88107865 -11.58947685 37.30152930 -6.78090455 -46.29680836
4510980000 -1.84106321 -31.49123325 -10.88303501 41.89720164 -11.59574605 37.33700638 -6.77519543 -46.19912832
4515970000 -1.83007438 -31.49634586 -10.89008598 41.80701943 -11.59031129 37.25405943 -6.79327458 -46.30863560
4520960000 -1.82850529 -31.53978758 -10.87328433 41.70388999 -11.57992639 37.16410566 -6.79330262 -46.30668487
4525950000 -1.82713372 -31.50498148 -10.87261013 41.80303993 -11.57978355 37.26187493 -6.80911609 -46.32433524
4530940000 -1.82905101 -31.55403950 -10.85680082 41.78447259 -11.56496300 37.28781627 -6.79859609 -46.36182820
4535930000 -1.82055447 -31.65020168 -10.86552178 41.61038539 -11.58448388 37.16080709 -6.81677226 -46.36890386
4540920000 -1.82429496 -31.61065688 -10.85158087 41.56966743 -11.55417625 37.21977615 -6.81455527 -46.42962429
4545910000 -1.82868181 -31.57422902 -10.86058344 41.59369259 -11.56233792 37.16359360 -6.82393625 -46.52237784
4550900000 -1.83972799 -31.59371180 -10.85830249 41.65495036 -11.56602965 37.20245413 -6.82827839 -46.43403798
4555890000 -1.84167552 -31.57656852 -10.85252367 41.53353772 -11.54994187 37.17056127 -6.81552068 -46.56266570
4560880000 -1.84474412 -31.57285637 -10.85373847 41.52574391 -11.55528345 37.20245797 -6.82831018 -46.64484310
4565870000 -1.85510794 -31.58661785 -10.84937131 41.38622695 -11.55520426 36.98399826 -6.82998821 -46.68337229
4570860000 -1.84840937 -31.57930539 -10.84797172 41.38485432 -11.54189049 37.12292804 -6.81780938 -46.65612730
4575850000 -1.85291021 -31.61538050 -10.83777050 41.34044040 -11.54189840 36.95086406 -6.82908871 -46.70919171
4580840000 -1.86170813 -31.56274933 -10.84843330 41.41104035 -11.53458784 37.13842341 -6.83311157 -46.70135899
4585830000 -1.87029205 -31.62293805 -10.83752297 41.48908047 -11.53030162 37.13155855 -6.82977889 -46.70989259
4590820000 -1.86417016 -31.65433706 -10.82333972 41.40961750 -11.53393147 37.03804917 -6.84078778 -46.72072976
4595810000 -1.87887806 -31.74001571 -10.82916508 41.33625339 -11.53236559 37.07824164 -6.84076917 -46.74694584
4600800000 -1.88131390 -31.78046839 -10.81427479 41.24355018 -11.51987466 37.02149966 -6.82721830 -46.81834754
4605790000 -1.88593831 -31.76130208 -10.83008981 41.26150817 -11.49788859 36.93500745 -6.84076844 -46.79321919
4610780000 -1.88122480 -31.86886562 -10.82770201 41.29724669 -11.49842436 36.91033310 -6.84333902 -46.84302966
4615770000 -1.88069648 -31.94723364 -10.82044025 41.28353711 -11.49722236 36.99595929 -6.83828776 -46.79148845
4620760000 -1.88656986 -31.93111965 -10.81557643 41.30641554 -11.49370515 36.93458641 -6.84707268 -46.85270055
4625750000 -1.87871710 -31.98489816 -10.80875908 41.25323862 -11.48793545 36.84643550 -6.84795841 -46.87379345
4630740000 -1.87472377 -31.98408848 -10.80702956 41.16228056 -11.48780288 36.77973621 -6.86746016 -46.82593873
4635730000 -1.87523049 -31.99217701 -10.79919069 41.05792375 -11.48690629 36.78878474 -6.85776233 -46.93966086
4640720000 -1.86622390 -32.05934485 -10.78305545 41.11870784 -11.48432697 36.74094200 -6.85732964 -46.99805738
4645710000 -1.87791292 -32.11150127 -10.79156781 40.95820622 -11.47188624 36.73224001 -6.86474426 -46.95753686
4650700000 -1.87332139 -32.05146892 -10.79622357 41.04184972 -11.47339357 36.78658782 -6.88271468 -47.06184838
4655690000 -1.88131907 -32.02845484 -10.78407720 40.93421324 -11.46097311 36.72614348 -6.89290430 -47.02695509
4660680000 -1.88522415 -32.02182042 -10.79461029 40.94804197 -11.46728290 36.69647296 -6.88895770 -47.05205573
4665670000 -1.88227934 -32.03099451 -10.78956055 40.99442685 -11.46511567 36.69516285 -6.87922355 -47.18613211
4670660000 -1.89344279 -32.06138123 -10.78520515 40.87715967 -11.46785002 36.62916246 -6.87384737 -47.18656574
4675650000 -1.89706307 -32.08110642 -10.78167507 40.98399807 -11.45469392 36.69497713 -6.88884167 -47.20287493
4680640000 -1.90310810 -32.06819614 -10.77988635 40.85342790 -11.44803473 36.58577108 -6.89165896 -47.35112761
4685630000 -1.90774324 -32.02123764 -10.77920203 40.84368011 -11.45162554 36.54739250 -6.90448376 -47.38065649
4690620000 -1.91023714 -32.11189700 -10.77243020 40.80686013 -11.44747717 36.58596447 -6.89588812 -47.37993990
4695610000 -1.90967085 -32.16903305 -10.75687341 40.75938596 -11.42214976 36.50168739 -6.89194062 -47.32106288
4700600000 -1.92495559 -32.16258549 -10.76695336 40.70185103 -11.42584108 36.61097394 -6.88100162 -47.41345196
4705590000 -1.92614534 -32.20366931 -10.76523061 40.78605841 -11.44250041 36.55312849 -6.91147822 -47.41077921
4710580000 -1.92191774 -32.26837661 -10.74394065 40.72310577 -11.43231631 36.49008200 -6.89490408 -47.33445916
4715570000 -1.92764505 -32.32226366 -10.74330669 40.76089630 -11.42248091 36.51102490 -6.90220686 -47.32696458
4720560000 -1.92597326 -32.35825114 -10.74480911 40.65424812 -11.42399615 36.56201678 -6.90702754 -47.40671076
4725550000 -1.92770141 -32.42329357 -10.72445235 40.54698486 -11.40446079 36.45517667 -6.90726585 -47.40234202
4730540000 -1.92048801 -32.45157967 -10.72953927 40.68273071 -11.39657643 36.32652000 -6.91181948 -47.40872995
4735530000 -1.91295602 -32.47635694 -10.73810511 40.61263394 -11.40273455 36.42901293 -6.90737349 -47.38221153
4740520000 -1.92338968 -32.52128554 -10.72335592 40.46500753 -11.40029771 36.33141637 -6.91222612 -47.38716640
4745510000 -1.91973445 -32.53451241 -10.72566941 40.49961299 -11.40221711 36.31005880 -6.92028589 -47.41697007
4750500000 -1.92076976 -32.53958231 -10.72890583 40.44968179 -11.39126337 36.33881382 -6.92916987 -47.43830274
4755490000 -1.92941671 -32.60256289 -10.71229117 40.34460483 -11.37601207 36.23621407 -6.92517932 -47.51103590
4760480000 -1.92246539 -32.58347906 -10.72895775 40.39315112 -11.38874182 36.18108968 -6.95556533 -47.51510336
4765470000 -1.92849274 -32.52096982 -10.71783607 40.46459052 -11.38138265 36.23749008 -6.94481438 -47.58440080
4770460000 -1.93758227 -32.61300755 -10.73017350 40.27626265 -11.36891500 36.21830491 -6.94757614 -47.69016808
4775450000 -1.93495184 -32.54388403 -10.71542468 40.37480958 -11.36344136 36.11132165 -6.94205220 -47.67356104
4780440000 -1.92941835 -32.52028642 -10.71866819 40.33559550 -11.37663916 36.21278464 -6.94152471 -47.70764437
4785430000 -1.94641458 -32.58853778 -10.69592008 40.27117144 -11.35969336 36.10660483 -6.95536987 -47.81943707
4790420000 -1.95173564 -32.52676566 -10.71128913 40.31619586 -11.37731013 36.21725248 -6.93855529 -47.81598178
4795410000 -1.96046048 -32.56836653 -10.70320221 40.21674353 -11.36724247 36.18385569 -6.94958427 -47.79913826
4800400000 -1.95965634 -32.60917884 -10.70804138 40.20368128 -11.35836771 36.23699197 -6.94318892 -47.81234751
4805390000 -1.97203298 -32.68655395 -10.69814648 40.13244225 -11.35532604 36.08352580 -6.94569679 -47.85355893
4810380000 -1.96763079 -32.69940649 -10.70148261 40.27400180 -11.35254179 36.11938413 -6.94844380 -47.83297036
4815370000 -1.97320875 -32.77477264 -10.67794923 40.20045756 -11.35431400 36.02984057 -6.95268882 -47.90954934
4820360000 -1.97832843 -32.79645261 -10.68448261 40.08583485 -11.32834261 35.98383809 -6.94408137 -47.87989487
4825350000 -1.98022744 -32.86057545 -10.68802901 40.08300221 -11.33632570 36.01303364 -6.94383463 -47.89994468
4830340000 -1.97025566 -32.86113789 -10.66658153 40.04737030 -11.34052532 36.03373308 -6.96273579 -47.89793126
4835330000 -1.97119065 -32.96109237 -10.67082296 39.95369895 -11.31113189 36.04205651 -6.95564922 -47.96334340
4840320000 -1.97440541 -32.95522406 -10.67399943 40.01968050 -11.33490774 35.98004920 -6.95314255 -47.87180228
4845310000 -1.97925771 -32.99793394 -10.66964495 40.04358476 -11.32198180 35.88113233 -6.96595925 -47.87362424
4850300000 -1.97827366 -32.96590763 -10.67530104 39.95615830 -11.31680484 35.87783599 -6.96944028 -48.04699263
4855290000 -1.96956578 -33.07443804 -10.66201940 39.91320553 -11.30736158 35.86973062 -6.98588436 -48.02018622
4860280000 -1.96907544 -33.07564469 -10.66424598 39.82533851 -11.31704867 35.74779792 -6.97738872 -48.09811588
4865270000 -1.97308776 -33.07109922 -10.67071638 39.80619341 -11.30003462 35.75993417 -6.97957007 -48.15250088
4870260000 -1.98770944 -33.07885211 -10.67425570 39.80584778 -11.30817419 35.72495568 -7.00070788 -48.20675493
4875250000 -1.98413939 -33.12501474 -10.65837756 39.81852006 -11.29994443 35.70585399 -6.99968354 -48.21096486
4880240000 -1.98181981 -33.04734140 -10.67025365 39.73653003 -11.31735615 35.75794580 -6.99283293 -48.26861124
4885230000 -1.98474907 -33.05511444 -10.65910259 39.73221456 -11.30100314 35.68876024 -6.99918205 -48.32976719
4890220000 -1.99403717 -33.07276803 -10.64106450 39.68198073 -11.29947299 35.73424773 -6.99849454 -48.23528483
4895210000 -2.00350348 -33.08959514 -10.66029294 39.58226792 -11.27939407 35.70340197 -7.00386023 -48.40962547
4900200000 -2.00865213 -33.12131453 -10.64358858 39.66354871 -11.30282181 35.62771744 -6.99698983 -48.35327848
4905190000 -2.00333534 -33.11619935 -10.64452006 39.63648031 -11.29262506 35.64093593 -7.00123358 -48.38448139
4910180000 -2.02351089 -33.15040904 -10.64288804 39.71056836 -11.28687028 35.58980798 -7.00049602 -48.38136922
4915170000 -2.01672547 -33.18350870 -10.62662403 39.62165145 -11.27048576 35.58907025 -6.99684529 -48.54871485
4920160000 -2.00869319 -33.32707007 -10.63875485 39.60414304 -11.27564839 35.58173277 -7.00427298 -48.45055169
4925150000 -2.02240457 -33.29388368 -10.63250298 39.57919389 -11.26488111 35.57890274 -7.00509582 -48.49869264
4930140000 -2.02602092 -33.38173097 -10.62674468 39.47195021 -11.27208532 35.63840081 -7.00587774 -48.45066475
4935130000 -2.03132904 -33.41957551 -10.63119273 39.38758344 -11.25516121 35.54301344 -7.02825328 -48.49743779
4940120000 -2.01832173 -33.40544273 -10.61920406 39.44952566 -11.24594833 35.45964717 -7.01321936 -48.47969216
4945110000 -2.02481293 -33.46802171 -10.61534729 39.43414098 -11.25853741 35.42503065 -7.00920189 -48.51562993
4950100000 -2.02391294 -33.48876294 -10.61949993 39.42166898 -11.26013949 35.38375936 -7.01079107 -48.54391616
4955090000 -2.02488612 -33.59249135 -10.62350744 39.39989637 -11.24573209 35.41073425 -7.02512856 -48.54480593
4960080000 -2.01876549 -33.62889762 -10.61944135 39.31443552 -11.24853591 35.36063284 -7.04222466 -48.56787351
4965070000 -2.02461122 -33.62960135 -10.60604506 39.31404942 -11.23775254 35.46987303 -7.02809779 -48.57044997
4970060000 -2.02125699 -33.61231800 -10.60519809 39.30896018 -11.24147312 35.33154341 -7.04219083 -48.69527750
4975050000 -2.02512669 -33.60017493 -10.59678513 39.29723737 -11.25517960 35.22266790 -7.04896395 -48.70716770
4980040000 -2.02297417 -33.60967985 -10.60253809 39.26714064 -11.23023643 35.37049249 -7.04266886 -48.73738872
4985030000 -2.02608075 -33.67181077 -10.60362455 39.20538146 -11.22314187 35.35080189 -7.04697273 -48.68782243
4990020000 -2.03299497 -33.62217004 -10.60094586 39.13452164 -11.22951918 35.24143605 -7.05142810 -48.84033686
4995010000 -2.04292433 -33.62302129 -10.59770950 39.23618546 -11.23406630 35.16243599 -7.05341430 -48.84498211
5000000000 -2.04138664 -33.66848145 -10.60894828 39.16796493 -11.21831945 35.23646082 -7.05280590 -48.83714017