! Created Wed Apr 08 16:01:30 2026
# hz S ma R 50
! 2 Port Network Data from SP1.SP block
! freq  magS11  angS11  magS21  angS21  magS12  angS12  magS22  angS22  
!     
           10000000       0.8386617468      -0.05538269049          5.05447034         179.9874359      0.002630039422         3.311809281        0.9870871934      -0.03643401925
           59990000       0.8386686473       -0.3322400881          5.05448362         179.9246274      0.002782179421         19.12364514        0.9870886842        -0.218567968
          109980000        0.838685405       -0.6090946056         5.054515871         179.8618164      0.003120925103         32.37157929        0.9870923043       -0.4007031446
          159970000       0.8387120192       -0.8859438433         5.054567091         179.7990009      0.003593890883         42.55263303        0.9870980536       -0.5828405722
          209960000        0.838748489        -1.162785403         5.054637277         179.7361789      0.004155495433         50.14045209        0.9871059316       -0.7649812739
          259950000       0.8387948131        -1.439616886         5.054726424         179.6733483      0.004774560221         55.80445636        0.9871159375       -0.9471262724
          309940000       0.8388509898        -1.716435899         5.054834528         179.6105071      0.005431470818         60.09691267        0.9871280705        -1.129276591
          359930000       0.8389170171        -1.993240046         5.054961583         179.5476532       0.00611403804           63.412387        0.9871423296        -1.311433251
          409920000       0.8389928928        -2.270026939         5.055107581         179.4847847      0.006814554024         66.02170677        0.9871587136        -1.493597275
          459910000        0.839078614        -2.546794188         5.055272514         179.4218994      0.007528007001         68.11042937        0.9871772212        -1.675769685
          509900000       0.8391741777         -2.82353941         5.055456372         179.3589953      0.008251038847          69.8073666        0.9871978507        -1.857951502
          559890000       0.8392795807        -3.100260224         5.055659146         179.2960705      0.008981333488         71.20360888        0.9872206004        -2.040143747
          609880000        0.839394819        -3.376954253         5.055880824         179.2331228      0.009717250529          72.3648621        0.9872454685        -2.222347441
          659870000       0.8395198885        -3.653619127         5.056121392         179.1701502       0.01045759997         73.33944958        0.9872724528        -2.404563603
          709860000        0.839654785        -3.930252479         5.056380838         179.1071507       0.01120149982         74.16356434         0.987301551        -2.586793252
          759850000       0.8397995034        -4.206851947         5.056659146         179.0441222       0.01194828376         74.86477358        0.9873327607        -2.769037408
          809840000       0.8399540388        -4.483415177         5.056956302         178.9810628       0.01269743966         75.46439975        0.9873660793        -2.951297088
          859830000       0.8401183855        -4.759939819         5.057272286         178.9179704       0.01344856783         75.97916776        0.9874015039        -3.133573309
          909820000       0.8402925378        -5.036423532         5.057607083         178.8548429         0.014201352         76.42236461        0.9874390316        -3.315867088
          959810000       0.8404764894        -5.312863979         5.057960672         178.7916783        0.0149555387         76.80466938        0.9874786591         -3.49817944
         1009800000       0.8406702338        -5.589258835         5.058333034         178.7284747       0.01571092253          77.1347566        0.9875203831        -3.680511379
         1059790000       0.8408737641        -5.865605778         5.058724146         178.6652299       0.01646733527         77.41974107        0.9875642002         -3.86286392
         1109780000        0.841087073        -6.141902498         5.059133988          178.601942       0.01722463785         77.66551046        0.9876101065        -4.045238075
         1159770000        0.841310153        -6.418146692         5.059562534          178.538609       0.01798271431         77.87697686        0.9876580981        -4.227634856
         1209760000       0.8415429962        -6.694336065         5.060009762         178.4752287       0.01874146714         78.05826939        0.9877081711        -4.410055273
         1259750000       0.8417855941        -6.970468333         5.060475644         178.4117993       0.01950081375         78.21288321        0.9877603211        -4.592500335
         1309740000       0.8420379382        -7.246541222         5.060960155         178.3483186        0.0202606837         78.34379593        0.9878145438        -4.774971051
         1359730000       0.8423000195        -7.522552467         5.061463266         178.2847847        0.0210210165         78.45355947        0.9878708344        -4.957468428
         1409720000       0.8425718286        -7.798499814         5.061984949         178.2211956       0.02178175994         78.54437308        0.9879291882        -5.139993471
         1459710000        0.842853356         -8.07438102         5.062525174         178.1575492       0.02254286861         78.61814193        0.9879896002        -5.322547185
         1509700000       0.8431445914        -8.350193854         5.063083909         178.0938436       0.02330430288         78.67652442        0.9880520652        -5.505130572
         1559690000       0.8434455246        -8.625936095         5.063661122         178.0300767       0.02406602795         78.72097072        0.9881165779        -5.687744634
         1609680000       0.8437561449        -8.901605534         5.064256781         177.9662466        0.0248280131         78.75275429        0.9881831329         -5.87039037
         1659670000       0.8440764411        -9.177199977          5.06487085         177.9023512        0.0255902311          78.7729979        0.9882517243         -6.05306878
         1709660000       0.8444064019         -9.45271724         5.065503294         177.8383886       0.02635265771         78.78269518        0.9883223462        -6.235780859
         1759650000       0.8447460154        -9.728155152         5.066154076         177.7743567       0.02711527122         78.78272858        0.9883949927        -6.418527603
         1809640000       0.8450952697        -10.00351156         5.066823159         177.7102536       0.02787805217         78.77388444        0.9884696575        -6.601310005
         1859630000       0.8454541521        -10.27878431         5.067510505         177.6460773       0.02864098296         78.75686571         0.988546334        -6.784129056
         1909620000         0.84582265        -10.55397129         5.068216072         177.5818258        0.0294040477         78.73230259        0.9886250158        -6.966985747
         1959610000       0.8462007501        -10.82907037          5.06893982         177.5174971       0.03016723191         78.70076176        0.9887056959        -7.149881065
         2009600000        0.846588439        -11.10407945         5.069681708         177.4530893       0.03093052238         78.66275408        0.9887883675        -7.332815997
         2059590000       0.8469857028        -11.37899646         5.070441691         177.3886003       0.03169390703         78.61874131        0.9888730233        -7.515791525
         2109580000       0.8473925274        -11.65381931         5.071219725         177.3240283       0.03245737474         78.56914185        0.9889596559        -7.698808632
         2159570000       0.8478088982        -11.92854596         5.072015765         177.2593712       0.03322091525         78.51433563        0.9890482579        -7.881868297
         2209560000       0.8482348004        -12.20317437         5.072829764         177.1946271       0.03398451906          78.4546685        0.9891388216        -8.064971499
         2259550000       0.8486702188        -12.47770251         5.073661675         177.1297939       0.03474817734         78.39045589        0.9892313389        -8.248119212
         2309540000       0.8491151377        -12.75212838         5.074511449         177.0648699       0.03551188187         78.32198606        0.9893258019         -8.43131241
         2359530000       0.8495695414        -13.02644999         5.075379035          176.999853       0.03627562494           78.249523        0.9894222022        -8.614552064
         2409520000       0.8500334135        -13.30066536         5.076264383         176.9347413       0.03703939933         78.17330887        0.9895205314        -8.797839141
         2459510000       0.8505067375        -13.57477255         5.077167441         176.8695327       0.03780319823         78.09356622        0.9896207809        -8.981174609
         2509500000       0.8509894964        -13.84876961         5.078088155         176.8042255       0.03856701521         78.01049992        0.9897229417         -9.16455943
         2559490000        0.851481673        -14.12265462          5.07902647         176.7388177       0.03933084417         77.92429887         0.989827005        -9.347994566
         2609480000       0.8519832497        -14.39642568         5.079982332         176.6733072       0.04009467931         77.83513752        0.9899329614        -9.531480974
         2659470000       0.8524942085        -14.67008091         5.080955683         176.6076923       0.04085851509          77.7431772        0.9900408016        -9.715019611
         2709460000       0.8530145311        -14.94361845         5.081946466          176.541971       0.04162234622         77.64856734         0.990150516        -9.898611429
         2759450000       0.8535441989        -15.21703644         5.082954621         176.4761413       0.04238616762         77.55144655        0.9902620949        -10.08225738
         2809440000        0.854083193        -15.49033305         5.083980089         176.4102014       0.04314997441         77.45194354        0.9903755283        -10.26595841
         2859430000       0.8546314939        -15.76350649         5.085022808         176.3441494       0.04391376185         77.35017799         0.990490806        -10.44971546
         2909420000       0.8551890821        -16.03655496         5.086082716         176.2779833       0.04467752538         77.24626135        0.9906079177        -10.63352948
         2959410000       0.8557559376        -16.30947669         5.087159749         176.2117013       0.04544126058         77.14029751        0.9907268529         -10.8174014
         3009400000       0.8563320399        -16.58226993         5.088253843         176.1453014       0.04620496311         77.03238339         0.990847601        -11.00133216
         3059390000       0.8569173686        -16.85493296         5.089364932         176.0787819       0.04696862879         76.92260958         0.990970151        -11.18532269
         3109380000       0.8575119025        -17.12746406         5.090492948         176.0121407       0.04773225348         76.81106077        0.9910944918        -11.36937392
         3159370000       0.8581156203        -17.39986153         5.091637824         175.9453761       0.04849583316         76.69781628        0.9912206121        -11.55348677
         3209360000       0.8587285003        -17.67212373         5.092799491         175.8784862       0.04925936388         76.58295043        0.9913485006        -11.73766218
         3259350000       0.8593505205        -17.94424899         5.093977877          175.811469       0.05002284173         76.46653293        0.9914781455        -11.92190105
         3309340000       0.8599816586        -18.21623569         5.095172911         175.7443228       0.05078626288         76.34862925         0.991609535         -12.1062043
         3359330000       0.8606218917        -18.48808222         5.096384521         175.6770457       0.05154962353          76.2293009        0.9917426572        -12.29057285
         3409320000        0.861271197          -18.759787         5.097612632         175.6096359       0.05231291991         76.10860576        0.9918774996        -12.47500761
         3459310000        0.861929551        -19.03134846          5.09885717         175.5420914       0.05307614831         75.98659829        0.9920140501        -12.65950947
         3509300000       0.8625969299        -19.30276506         5.100118058         175.4744106       0.05383930503         75.86332982        0.9921522959        -12.84407934
         3559290000       0.8632733099        -19.57403528         5.101395219         175.4065915       0.05460238639         75.73884875        0.9922922242        -13.02871812
         3609280000       0.8639586664        -19.84515763         5.102688574         175.3386323       0.05536538872         75.61320074        0.9924338221         -13.2134267
         3659270000       0.8646529748        -20.11613061         5.103998043         175.2705313       0.05612830838         75.48642893        0.9925770765        -13.39820596
         3709260000         0.86535621        -20.38695278         5.105323545         175.2022865       0.05689114171         75.35857406        0.9927219738        -13.58305681
         3759250000       0.8660683466         -20.6576227         5.106664998         175.1338963       0.05765388507         75.22967468        0.9928685007        -13.76798011
         3809240000       0.8667893589        -20.92813896          5.10802232         175.0653588       0.05841653481         75.09976726        0.9930166432        -13.95297675
         3859230000       0.8675192209        -21.19850017         5.109395424         174.9966722       0.05917908727         74.96888634        0.9931663876        -14.13804759
         3909220000       0.8682579061        -21.46870497         5.110784227         174.9278348       0.05994153879         74.83706465        0.9933177195        -14.32319352
         3959210000       0.8690053878          -21.738752          5.11218864         174.8588447       0.06070388568         74.70433322        0.9934706248        -14.50841538
         4009200000        0.869761639        -22.00863994         5.113608575         174.7897002       0.06146612426         74.57072149        0.9936250889        -14.69371405
         4059190000       0.8705266322         -22.2783675         5.115043945         174.7203996        0.0622282508          74.4362574        0.9937810971        -14.87909037
         4109180000       0.8713003397        -22.54793339         5.116494657         174.6509411       0.06299026157         74.30096752        0.9939386344        -15.06454521
         4159170000       0.8720827335        -22.81733636          5.11796062          174.581323        0.0637521528         74.16487705        0.9940976857         -15.2500794
         4209160000       0.8728737852        -23.08657518         5.119441742         174.5115434       0.06451392072         74.02800999        0.9942582358         -15.4356938
         4259150000        0.873673466        -23.35564863         5.120937928         174.4416008       0.06527556149         73.89038916        0.9944202692        -15.62138923
         4309140000       0.8744817469        -23.62455553         5.122449084         174.3714933       0.06603707128         73.75203628        0.9945837701        -15.80716653
         4359130000       0.8752985984        -23.89329471         5.123975112         174.3012192       0.06679844619         73.61297203        0.9947487228        -15.99302652
         4409120000       0.8761239909        -24.16186502         5.125515915         174.2307769       0.06755968232         73.47321614         0.994915111        -16.17897004
         4459110000       0.8769578943        -24.43026535         5.127071395         174.1601647       0.06832077569         73.33278738        0.9950829186         -16.3649979
         4509100000       0.8778002781         -24.6984946         5.128641451         174.0893808       0.06908172232         73.19170367         0.995252129         -16.5511109
         4559090000       0.8786511118        -24.96655169         5.130225981         174.0184236       0.06984251818         73.04998212        0.9954227256        -16.73730987
         4609080000       0.8795103641        -25.23443558         5.131824884         173.9472913       0.07060315917         72.90763903        0.9955946916        -16.92359559
         4659070000       0.8803780038        -25.50214522         5.133438055         173.8759824       0.07136364118         72.76468998        0.9957680098        -17.10996888
         4709060000        0.881253999        -25.76967961          5.13506539         173.8044952       0.07212396004         72.62114988        0.9959426631        -17.29643051
         4759050000       0.8821383178        -26.03703777         5.136706783          173.732828       0.07288411153         72.47703293        0.9961186339        -17.48298128
         4809040000       0.8830309277        -26.30421874         5.138362126         173.6609792       0.07364409139         72.33235274        0.9962959047        -17.66962196
         4859030000       0.8839317961        -26.57122157          5.14003131         173.5889471        0.0744038953         72.18712233        0.9964744576        -17.85635334
         4909020000       0.8848408899        -26.83804534         5.141714226         173.5167302       0.07516351889         72.04135414        0.9966542745        -18.04317618
         4959010000       0.8857581757        -27.10468916         5.143410763         173.4443268       0.07592295775         71.89506007        0.9968353372        -18.23009124
         5009000000       0.8866836198        -27.37115215         5.145120808         173.3717353        0.0766822074         71.74825155        0.9970176273        -18.41709928
         5058990000       0.8876171881        -27.63743347         5.146844249         173.2989541       0.07744126332         71.60093949        0.9972011262        -18.60420106
         5108980000       0.8885588464        -27.90353228         5.148580969         173.2259817       0.07820012092         71.45313437         0.997385815        -18.79139732
         5158970000       0.8895085598        -28.16944777         5.150330854         173.1528164       0.07895877556         71.30484621        0.9975716747        -18.97868879
         5208960000       0.8904662934        -28.43517917         5.152093786         173.0794567       0.07971722254         71.15608465        0.9977586861        -19.16607622
         5258950000       0.8914320118        -28.70072569         5.153869646         173.0059011       0.08047545711         71.00685891        0.9979468298        -19.35356033
         5308940000       0.8924056793        -28.96608661         5.155658316         172.9321479       0.08123347445         70.85717784        0.9981360861        -19.54114184
         5358930000       0.8933872599        -29.23126121         5.157459674         172.8581957       0.08199126967         70.70704994        0.9983264353        -19.72882147
         5408920000       0.8943767172        -29.49624877         5.159273597         172.7840429       0.08274883783         70.55648336        0.9985178573        -19.91659991
         5458910000       0.8953740145        -29.76104863         5.161099964          172.709688       0.08350617394         70.40548594        0.9987103319        -20.10447789
         5508900000       0.8963791148        -30.02566012         5.162938648         172.6351294       0.08426327291         70.25406521        0.9989038388        -20.29245608
         5558890000       0.8973919809        -30.29008262         5.164789525         172.5603658       0.08502012962         70.10222839        0.9990983573        -20.48053518
         5608880000       0.8984125749         -30.5543155         5.166652466         172.4853956       0.08577673887         69.94998243        0.9992938666        -20.66871587
         5658870000       0.8994408589        -30.81835817         5.168527345         172.4102173       0.08653309539         69.79733401        0.9994903458        -20.85699882
         5708860000       0.9004767946        -31.08221007          5.17041403         172.3348295       0.08728919385         69.64428956        0.9996877736         -21.0453847
         5758850000       0.9015203432        -31.34587062         5.172312392         172.2592307       0.08804502885         69.49085525        0.9998861287        -21.23387417
         5808840000       0.9025714659        -31.60933931         5.174222298         172.1834194       0.08880059491         69.33703703         1.000085389        -21.42246789
         5858830000       0.9036301233        -31.87261562         5.176143615         172.1073943        0.0895558865         69.18284063         1.000285534        -21.61116649
         5908820000       0.9046962756        -32.13569906         5.178076209         172.0311539       0.09031089801         69.02827155         1.000486541        -21.79997062
         5958810000       0.9057698831        -32.39858915         5.180019943         171.9546967       0.09106562375         68.87333509         1.000688387        -21.98888091
         6008800000       0.9068509052        -32.66128544         5.181974681         171.8780215       0.09182005797         68.71803638         1.000891051        -22.17789799
         6058790000       0.9079393014         -32.9237875         5.183940285         171.8011267       0.09257419485         68.56238032         1.001094509        -22.36702245
         6108780000       0.9090350307        -33.18609492         5.185916614         171.7240111       0.09332802849         68.40637168          1.00129874        -22.55625493
         6158770000       0.9101380518        -33.44820729         5.187903528         171.6466732       0.09408155291         68.25001501          1.00150372        -22.74559601
         6208760000       0.9112483231        -33.71012425         5.189900885         171.5691117       0.09483476207         68.09331473         1.001709425        -22.93504629
         6258750000       0.9123658027        -33.97184544         5.191908542         171.4913252       0.09558764985         67.93627509         1.001915834        -23.12460635
         6308740000       0.9134904481        -34.23337051         5.193926355         171.4133125       0.09634021004          67.7789002         1.002122921        -23.31427677
         6358730000       0.9146222168        -34.49469915         5.195954176         171.3350721       0.09709243638         67.62119401         1.002330664        -23.50405811
         6408720000       0.9157610659        -34.75583106         5.197991861         171.2566029       0.09784432251         67.46316035         1.002539038        -23.69395095
         6458710000       0.9169069521        -35.01676594          5.20003926         171.1779034       0.09859586201          67.3048029         1.002748019        -23.88395582
         6508700000       0.9180598317        -35.27750354         5.202096223         171.0989724       0.09934704836         67.14612523         1.002957583        -24.07407328
         6558690000       0.9192196608        -35.53804361         5.204162601         171.0198087         0.100097875         66.98713078         1.003167706        -24.26430386
         6608680000       0.9203863953        -35.79838591         5.206238241          170.940411        0.1008483352         66.82782287         1.003378363        -24.45464807
         6658670000       0.9215599904        -36.05853022          5.20832299         170.8607779        0.1015984223         66.66820473         1.003589528        -24.64510645
         6708660000       0.9227404012        -36.31847636         5.210416693         170.7809084        0.1023481295         66.50827945         1.003801177         -24.8356795
         6758650000       0.9239275825        -36.57822413         5.212519195         170.7008011        0.1030974498         66.34805004         1.004013285        -25.02636772
         6808640000       0.9251214888        -36.83777338          5.21463034         170.6204549        0.1038463762         66.18751941         1.004225826         -25.2171716
         6858630000        0.926322074        -37.09712395         5.216749968         170.5398685        0.1045949017         66.02669037         1.004438774        -25.40809162
         6908620000        0.927529292        -37.35627572         5.218877921         170.4590408        0.1053430192         65.86556564         1.004652104        -25.59912826
         6958610000       0.9287430963        -37.61522856         5.221014038         170.3779706        0.1060907214         65.70414786         1.004865789        -25.79028197
         7008600000       0.9299634398        -37.87398237         5.223158157         170.2966568         0.106838001         65.54243958         1.005079804        -25.98155322
         7058590000       0.9311902754        -38.13253706         5.225310115         170.2150981        0.1075848505         65.38044327         1.005294122        -26.17294244
         7108580000       0.9324235556        -38.39089257         5.227469748         170.1332936        0.1083312626         65.21816133         1.005508716        -26.36445008
         7158570000       0.9336632325        -38.64904883          5.22963689          170.051242        0.1090772297         65.05559607         1.005723559        -26.55607655
         7208560000       0.9349092578        -38.90700581         5.231811376         169.9689422         0.109822744         64.89274976         1.005938625        -26.74782227
         7258550000        0.936161583        -39.16476346         5.233993036         169.8863932         0.110567798         64.72962458         1.006153887        -26.93968766
         7308540000       0.9374201593        -39.42232179         5.236181701         169.8035939        0.1113123837         64.56622264         1.006369316         -27.1316731
         7358530000       0.9386849375        -39.67968078         5.238377203         169.7205433        0.1120564932           64.402546         1.006584886        -27.32377898
         7408520000       0.9399558681        -39.93684044         5.240579368         169.6372402        0.1128001186         64.23859667          1.00680057        -27.51600567
         7458510000       0.9412329012        -40.19380081         5.242788024         169.5536836        0.1135432518         64.07437658         1.007016338        -27.70835355
         7508500000       0.9425159867        -40.45056192         5.245002998         169.4698726        0.1142858846         63.90988762         1.007232163        -27.90082297
         7558490000       0.9438050741        -40.70712381         5.247224113         169.3858061        0.1150280089         63.74513162         1.007448017        -28.09341426
         7608480000       0.9451001126        -40.96348656         5.249451195         169.3014831        0.1157696161         63.58011038         1.007663871        -28.28612778
         7658470000        0.946401051        -41.21965022         5.251684065         169.2169027         0.116510698         63.41482561         1.007879697        -28.47896383
         7708460000       0.9477078379         -41.4756149         5.253922545         169.1320639         0.117251246         63.24927901         1.008095465        -28.67192274
         7758450000       0.9490204215        -41.73138068         5.256166455         169.0469657        0.1179912515         63.08347224         1.008311148         -28.8650048
         7808440000       0.9503387496        -41.98694768         5.258415614         168.9616072        0.1187307059         62.91740688         1.008526716        -29.05821031
         7858430000       0.9516627699          -42.242316          5.26066984         168.8759876        0.1194696003          62.7510845         1.008742139        -29.25153955
         7908420000       0.9529924296        -42.49748579         5.262928949         168.7901058        0.1202079259         62.58450663         1.008957389        -29.44499279
         7958410000       0.9543276756        -42.75245718         5.265192757          168.703961        0.1209456738         62.41767475         1.009172435        -29.63857028
         8008400000       0.9556684546        -43.00723032         5.267461079         168.6175524        0.1216828349         62.25059032         1.009387247        -29.83227227
         8058390000       0.9570147127        -43.26180536         5.269733727         168.5308791        0.1224194001         62.08325474         1.009601797        -30.02609899
         8108380000       0.9583663959        -43.51618248         5.272010514         168.4439402        0.1231553602         61.91566941         1.009816053        -30.22005068
         8158370000       0.9597234499        -43.77036185         5.274291251         168.3567349        0.1238907058         61.74783568         1.010029985        -30.41412755
         8208360000         0.96108582        -44.02434367         5.276575747         168.2692625        0.1246254277         61.57975488         1.010243564        -30.60832978
         8258350000       0.9624534512        -44.27812811         5.278863811         168.1815221        0.1253595162         61.41142829         1.010456757        -30.80265758
         8308340000       0.9638262882        -44.53171539         5.281155252         168.0935129        0.1260929619         61.24285719         1.010669535        -30.99711112
         8358330000       0.9652042753        -44.78510571         5.283449875         168.0052342        0.1268257551         61.07404283         1.010881866        -31.19169057
         8408320000       0.9665873565         -45.0382993         5.285747485         167.9166852         0.127557886         60.90498642          1.01109372        -31.38639608
         8458310000       0.9679754757        -45.29129637         5.288047888         167.8278653        0.1282893448         60.73568916         1.011305065        -31.58122778
         8508300000       0.9693685762        -45.54409717         5.290350886         167.7387736        0.1290201216         60.56615222         1.011515869        -31.77618581
         8558290000       0.9707666011        -45.79670192         5.292656282         167.6494096        0.1297502063         60.39637676         1.011726102        -31.97127029
         8608280000       0.9721694931        -46.04911088         5.294963877         167.5597725        0.1304795889         60.22636392         1.011935731        -32.16648132
         8658270000       0.9735771949        -46.30132429          5.29727347         167.4698616        0.1312082591          60.0561148         1.012144725        -32.36181899
         8708260000       0.9749896485        -46.55334241          5.29958486         167.3796764        0.1319362068          59.8856305         1.012353051        -32.55728338
         8758250000       0.9764067957        -46.80516551         5.301897847         167.2892161        0.1326634214         59.71491211         1.012560677        -32.75287455
         8808240000       0.9778285782        -47.05679385         5.304212226         167.1984802        0.1333898926          59.5439607         1.012767572        -32.94859256
         8858230000       0.9792549371         -47.3082277         5.306527793         167.1074681        0.1341156098          59.3727773         1.012973702        -33.14443745
         8908220000       0.9806858134        -47.55946734         5.308844344         167.0161792        0.1348405624         59.20136297         1.013179035        -33.34040924
         8958210000       0.9821211477        -47.81051306         5.311161672          166.924613        0.1355647396         59.02971871         1.013383538        -33.53650796
         9008200000       0.9835608803        -48.06136513         5.313479571         166.8327688        0.1362881307         58.85784555         1.013587179         -33.7327336
         9058190000       0.9850049511        -48.31202384         5.315797831         166.7406463        0.1370107247         58.68574448         1.013789924        -33.92908614
         9108180000          0.9864533         -48.5624895         5.318116244         166.6482448        0.1377325106         58.51341649          1.01399174        -34.12556557
         9158170000       0.9879058663        -48.81276239           5.3204346         166.5555638        0.1384534775         58.34086257         1.014192594        -34.32217184
         9208160000        0.989362589        -49.06284281         5.322752689          166.462603         0.139173614         58.16808367         1.014392453        -34.51890491
         9258150000       0.9908234071        -49.31273106         5.325070297         166.3693618         0.139892909         57.99508077         1.014591283         -34.7157647
         9308140000        0.992288259        -49.56242745         5.327387212         166.2758398        0.1406113511         57.82185481          1.01478905        -34.91275114
         9358130000       0.9937570829        -49.81193228         5.329703221         166.1820366         0.141328929         57.64840675          1.01498572        -35.10986413
         9408120000       0.9952298168        -50.06124585         5.332018109         166.0879519         0.142045631         57.47473753         1.015181261        -35.30710356
         9458110000       0.9967063982        -50.31036848          5.33433166         165.9935851        0.1427614456         57.30084807         1.015375637        -35.50446931
         9508100000       0.9981867645        -50.55930047         5.336643657         165.8989359        0.1434763612         57.12673932         1.015568815        -35.70196125
         9558090000       0.9996708527        -50.80804214         5.338953884          165.804004        0.1441903659         56.95241219          1.01576076        -35.89957922
         9608080000          1.0011586        -51.05659379         5.341262123         165.7087892         0.144903448          56.7778676         1.015951438        -36.09732307
         9658070000        1.002649942        -51.30495573         5.343568153         165.6132909        0.1456155954         56.60310649         1.016140815        -36.29519261
         9708060000        1.004144815        -51.55312828         5.345871756          165.517509        0.1463267962         56.42812975         1.016328856        -36.49318765
         9758050000        1.005643156        -51.80111174         5.348172711         165.4214432        0.1470370382         56.25293832         1.016515526        -36.69130798
         9808040000        1.007144899        -52.04890642         5.350470796         165.3250933        0.1477463094         56.07753308          1.01670079        -36.88955338
         9858030000        1.008649981        -52.29651264         5.352765789         165.2284589        0.1484545974         55.90191497         1.016884615        -37.08792362
         9908020000        1.010158336        -52.54393069         5.355057467           165.13154        0.1491618898         55.72608488         1.017066964        -37.28641843
         9958010000        1.011669899        -52.79116089         5.357345606         165.0343362        0.1498681743         55.55004374         1.017247803        -37.48503756
        1.0008e+010        1.013184605        -53.03820353         5.359629983         164.9368474        0.1505734383         55.37379244         1.017427096        -37.68378072
      1.005799e+010        1.014702387        -53.28505892          5.36191037         164.8390735        0.1512776693          55.1973319         1.017604809        -37.88264762
      1.010798e+010         1.01622318        -53.53172736         5.364186544         164.7410143        0.1519808546         55.02066303         1.017780906        -38.08163794
      1.015797e+010        1.017746918        -53.77820915         5.366458276         164.6426696        0.1526829814         54.84378675         1.017955352        -38.28075136
      1.020796e+010        1.019273534        -54.02450457          5.36872534         164.5440395        0.1533840369         54.66670397         1.018128111        -38.47998754
      1.025795e+010        1.020802961        -54.27061393         5.370987507         164.4451237        0.1540840082         54.48941561         1.018299148        -38.67934612
      1.030794e+010        1.022335133         -54.5165375         5.373244549         164.3459223        0.1547828824         54.31192259         1.018468427        -38.87882672
      1.035793e+010        1.023869981        -54.76227557         5.375496238         164.2464352        0.1554806464         54.13422584         1.018635913        -39.07842896
      1.040792e+010        1.025407438        -55.00782843         5.377742342         164.1466624         0.156177287         53.95632629         1.018801569        -39.27815243
      1.045791e+010        1.026947437        -55.25319634         5.379982631         164.0466038         0.156872791         53.77822486         1.018965361        -39.47799672
       1.05079e+010        1.028489909        -55.49837958         5.382216875         163.9462595        0.1575671453          53.5999225         1.019127251        -39.67796138
      1.055789e+010        1.030034787        -55.74337841         5.384444841         163.8456295        0.1582603363         53.42142015         1.019287205        -39.87804598
      1.060788e+010        1.031582001         -55.9881931         5.386666298         163.7447139        0.1589523508         53.24271876         1.019445186        -40.07825004
      1.065787e+010        1.033131482        -56.23282391         5.388881012         163.6435127        0.1596431751         53.06381927         1.019601159        -40.27857308
      1.070786e+010        1.034683163        -56.47727107         5.391088752         163.5420261        0.1603327958         52.88472264         1.019755086         -40.4790146
      1.075785e+010        1.036236973        -56.72153485         5.393289283         163.4402542        0.1610211992         52.70542985         1.019906933        -40.67957409
      1.080784e+010        1.037792843        -56.96561548          5.39548237          163.338197        0.1617083716         52.52594186         1.020056663        -40.88025101
      1.085783e+010        1.039350704        -57.20951318          5.39766778         163.2358548        0.1623942992         52.34625964          1.02020424        -41.08104483
      1.090782e+010        1.040910485         -57.4532282         5.399845277         163.1332276        0.1630789682         52.16638419         1.020349628        -41.28195497
      1.095781e+010        1.042472116        -57.69676074         5.402014626         163.0303159        0.1637623647          51.9863165          1.02049279        -41.48298086
       1.10078e+010        1.044035528        -57.94011103         5.404175591         162.9271196        0.1644444747         51.80605755         1.020633691        -41.68412191
      1.105779e+010        1.045600648        -58.18327927         5.406327937         162.8236391        0.1651252842         51.62560837         1.020772294         -41.8853775
      1.110778e+010        1.047167408        -58.42626565         5.408471426         162.7198746        0.1658047791         51.44496997         1.020908562          -42.086747
      1.115777e+010        1.048735735        -58.66907038         5.410605821         162.6158265        0.1664829452         51.26414337          1.02104246        -42.28822977
      1.120776e+010        1.050305558        -58.91169363         5.412730887         162.5114949        0.1671597684          51.0831296         1.021173952        -42.48982515
      1.125775e+010        1.051876807        -59.15413557         5.414846384         162.4068802        0.1678352343          50.9019297            1.021303        -42.69153247
      1.130774e+010         1.05344941        -59.39639639         5.416952076         162.3019828        0.1685093286         50.72054473         1.021429569        -42.89335102
      1.135773e+010        1.055023294        -59.63847623         5.419047725          162.196803        0.1691820369         50.53897575         1.021553623         -43.0952801
      1.140772e+010        1.056598388        -59.88037525         5.421133092         162.0913412        0.1698533448         50.35722381         1.021675125        -43.29731898
      1.145771e+010        1.058174621        -60.12209358          5.42320794         161.9855978        0.1705232377         50.17529001         1.021794038        -43.49946691
       1.15077e+010        1.059751918        -60.36363137         5.425272029         161.8795732        0.1711917012         49.99317544         1.021910328        -43.70172314
      1.155769e+010        1.061330209        -60.60498873         5.427325122         161.7732678        0.1718587206         49.81088118         1.022023956        -43.90408689
      1.160768e+010        1.062909421        -60.84616579          5.42936698         161.6666822        0.1725242812         49.62840835         1.022134888        -44.10655736
      1.165767e+010         1.06448948        -61.08716263         5.431397363         161.5598167        0.1731883683         49.44575807         1.022243088        -44.30913374
      1.170766e+010        1.066070314        -61.32797937         5.433416033         161.4526719        0.1738509673         49.26293147         1.022348518        -44.51181521
      1.175765e+010         1.06765185        -61.56861607         5.435422751         161.3452484        0.1745120631         49.07992969         1.022451143        -44.71460092
      1.180764e+010        1.069234014        -61.80907283         5.437417278         161.2375466        0.1751716411         48.89675389         1.022550927        -44.91749001
      1.185763e+010        1.070816733         -62.0493497         5.439399375         161.1295672        0.1758296864         48.71340523         1.022647834        -45.12048159
      1.190762e+010        1.072399934        -62.28944674         5.441368803         161.0213106        0.1764861839         48.52988487         1.022741827        -45.32357478
      1.195761e+010        1.073983544        -62.52936398         5.443325323         160.9127776        0.1771411187         48.34619402         1.022832872        -45.52676865
       1.20076e+010        1.075567487        -62.76910147         5.445268697         160.8039688        0.1777944758         48.16233387         1.022920932        -45.73006229
      1.205759e+010        1.077151691        -63.00865922         5.447198686         160.6948847        0.1784462402         47.97830563         1.023005971        -45.93345474
      1.210758e+010        1.078736081        -63.24803725         5.449115051         160.5855261        0.1790963966         47.79411051         1.023087954        -46.13694504
      1.215757e+010        1.080320583        -63.48723554         5.451017554         160.4758937        0.1797449301         47.60974977         1.023166845        -46.34053221
      1.220756e+010        1.081905123         -63.7262541         5.452905956         160.3659881        0.1803918254         47.42522463         1.023242609        -46.54421525
      1.225755e+010        1.083489627        -63.96509289          5.45478002         160.2558101        0.1810370674         47.24053637         1.023315209        -46.74799315
      1.230754e+010         1.08507402        -64.20375189         5.456639508         160.1453605        0.1816806407         47.05568625         1.023384611        -46.95186486
      1.235753e+010        1.086658228        -64.44223103         5.458484182           160.03464        0.1823225303         46.87067556          1.02345078        -47.15582935
      1.240752e+010        1.088242176        -64.68053027         5.460313805         159.9236494        0.1829627206         46.68550559          1.02351368        -47.35988555
      1.245751e+010        1.089825789        -64.91864952          5.46212814         159.8123896        0.1836011966         46.50017765         1.023573276        -47.56403237
       1.25075e+010        1.091408993        -65.15658871         5.463926951         159.7008614        0.1842379427         46.31469307         1.023629532        -47.76826872
      1.255749e+010        1.092991713        -65.39434774         5.465710001         159.5890655        0.1848729437         46.12905319         1.023682416        -47.97259347
      1.260748e+010        1.094573873        -65.63192649         5.467477054          159.477003        0.1855061842         45.94325934          1.02373189        -48.17700549
      1.265747e+010          1.0961554        -65.86932485         5.469227876         159.3646747        0.1861376488         45.75731289         1.023777922        -48.38150363
      1.270746e+010        1.097736218        -66.10654268         5.470962231         159.2520815         0.186767322         45.57121523         1.023820475        -48.58608672
      1.275745e+010        1.099316252        -66.34357983         5.472679884         159.1392243        0.1873951885         45.38496773         1.023859517        -48.79075357
      1.280744e+010        1.100895426        -66.58043615         5.474380602         159.0261042        0.1880212327         45.19857179         1.023895012        -48.99550299
      1.285743e+010        1.102473667        -66.81711145         5.476064152         158.9127221        0.1886454393         45.01202884         1.023926927        -49.20033375
      1.290742e+010        1.104050898        -67.05360555           5.4777303         158.7990789        0.1892677927         44.82534031         1.023955227        -49.40524461
      1.295741e+010        1.105627045        -67.28991824         5.479378814         158.6851758        0.1898882774         44.63850762         1.023979879        -49.61023432
       1.30074e+010        1.107202032        -67.52604932         5.481009463         158.5710138        0.1905068781         44.45153225         1.024000849        -49.81530161
      1.305739e+010        1.108775784        -67.76199856         5.482622015         158.4565939        0.1911235791         44.26441566         1.024018104        -50.02044519
      1.310738e+010        1.110348226        -67.99776571         5.484216241         158.3419172         0.191738365         44.07715933         1.024031609        -50.22566376
      1.315737e+010        1.111919283        -68.23335052         5.485791911         158.2269848        0.1923512203         43.88976476         1.024041333          -50.430956
      1.320736e+010         1.11348888        -68.46875272         5.487348795         158.1117978        0.1929621296         43.70223346         1.024047242        -50.63632056
      1.325735e+010        1.115056941        -68.70397202         5.488886666         157.9963575        0.1935710772         43.51456696         1.024049303         -50.8417561
      1.330734e+010        1.116623392        -68.93900814         5.490405297         157.8806648        0.1941780477          43.3267668         1.024047483        -51.04726124
      1.335733e+010        1.118188157        -69.17386075         5.491904461         157.7647211        0.1947830257         43.13883452          1.02404175        -51.25283459
      1.340732e+010        1.119751162        -69.40852954         5.493383932         157.6485276        0.1953859957          42.9507717         1.024032072        -51.45847476
      1.345731e+010         1.12131233        -69.64301417         5.494843486         157.5320853        0.1959869421         42.76257992         1.024018417        -51.66418031
       1.35073e+010        1.122871589        -69.87731428         5.496282899         157.4153957        0.1965858496         42.57426076         1.024000753        -51.86994981
      1.355729e+010        1.124428862         -70.1114295         5.497701948           157.29846        0.1971827026         42.38581584         1.023979047        -52.07578181
      1.360728e+010        1.125984074        -70.34535945         5.499100412         157.1812794        0.1977774859         42.19724678          1.02395327        -52.28167483
      1.365727e+010        1.127537152        -70.57910375         5.500478068         157.0638552         0.198370184         42.00855522         1.023923389        -52.48762739
      1.370726e+010         1.12908802        -70.81266197         5.501834699         156.9461888        0.1989607814          41.8197428         1.023889373        -52.69363799
      1.375725e+010        1.130636604        -71.04603369         5.503170084         156.8282815        0.1995492629          41.6308112         1.023851192         -52.8997051
      1.380724e+010         1.13218283        -71.27921847         5.504484006         156.7101347        0.2001356131         41.44176208         1.023808815        -53.10582719
      1.385723e+010        1.133726622        -71.51221587         5.505776249         156.5917498        0.2007198166         41.25259714         1.023762212        -53.31200271
      1.390722e+010        1.135267908        -71.74502541         5.507046597         156.4731281        0.2013018583         41.06331808         1.023711352         -53.5182301
      1.395721e+010        1.136806612         -71.9776466         5.508294836         156.3542711        0.2018817229         40.87392663         1.023656207        -53.72450776
       1.40072e+010        1.138342661        -72.21007896         5.509520754         156.2351802         0.202459395         40.68442452         1.023596745        -53.93083411
      1.405719e+010         1.13987598        -72.44232197         5.510724137         156.1158569        0.2030348597         40.49481349         1.023532939        -54.13720752
      1.410718e+010        1.141406497        -72.67437511         5.511904776         155.9963026        0.2036081016          40.3050953         1.023464758        -54.34362636
      1.415717e+010        1.142934137        -72.90623783         5.513062462         155.8765189        0.2041791058         40.11527173         1.023392175        -54.55008899
      1.420716e+010        1.144458828        -73.13790958         5.514196986         155.7565072        0.2047478571         39.92534457          1.02331516        -54.75659375
      1.425715e+010        1.145980495         -73.3693898         5.515308143         155.6362691        0.2053143405         39.73531562         1.023233686        -54.96313896
      1.430714e+010        1.147499067        -73.60067789         5.516395727         155.5158062        0.2058785411         39.54518669         1.023147723        -55.16972294
      1.435713e+010        1.149014469        -73.83177326         5.517459535           155.39512        0.2064404438         39.35495961         1.023057246        -55.37634396
      1.440712e+010        1.150526629         -74.0626753         5.518499364         155.2742121        0.2070000339         39.16463622         1.022962225        -55.58300032
      1.445711e+010        1.152035476        -74.29338338         5.519515014          155.153084        0.2075572965         38.97421838         1.022862635        -55.78969026
       1.45071e+010        1.153540935        -74.52389685         5.520506285         155.0317375        0.2081122169         38.78370796         1.022758448        -55.99641206
      1.455709e+010        1.155042936        -74.75421507          5.52147298         154.9101742        0.2086647802         38.59310683         1.022649638        -56.20316392
      1.460708e+010        1.156541407        -74.98433736         5.522414903         154.7883957         0.209214972          38.4024169         1.022536178        -56.40994408
      1.465707e+010        1.158036275        -75.21426304         5.523331859         154.6664037        0.2097627774         38.21164006         1.022418043        -56.61675075
      1.470706e+010         1.15952747        -75.44399141         5.524223655         154.5441999        0.2103081821         38.02077824         1.022295207         -56.8235821
      1.475705e+010         1.16101492        -75.67352175         5.525090101          154.421786        0.2108511716         37.82983338         1.022167645        -57.03043632
      1.480704e+010        1.162498554        -75.90285334         5.525931006         154.2991637        0.2113917314         37.63880741         1.022035333        -57.23731156
      1.485703e+010        1.163978301        -76.13198545         5.526746182         154.1763348        0.2119298473         37.44770231         1.021898244        -57.44420599
      1.490702e+010        1.165454092        -76.36091731         5.527535444         154.0533011        0.2124655049         37.25652003         1.021756355        -57.65111772
      1.495701e+010        1.166925856        -76.58964815         5.528298608         153.9300643          0.21299869         37.06526256         1.021609643        -57.85804488
        1.5007e+010        1.168393523        -76.81817719          5.52903549         153.8066262        0.2135293887         36.87393191         1.021458083        -58.06498558
      1.505699e+010        1.169857024        -77.04650364          5.52974591         153.6829886        0.2140575867         36.68253007         1.021301653        -58.27193792
      1.510698e+010        1.171316289        -77.27462669          5.53042969         153.5591534        0.2145832703         36.49105907         1.021140329        -58.47889997
      1.515697e+010        1.172771249        -77.50254551         5.531086651         153.4351224        0.2151064254         36.29952093         1.020974089        -58.68586979
      1.520696e+010        1.174221836        -77.73025926          5.53171662         153.3108975        0.2156270384         36.10791772         1.020802911        -58.89284545
      1.525695e+010        1.175667982        -77.95776709         5.532319423         153.1864805        0.2161450954         35.91625147         1.020626773        -59.09982499
      1.530694e+010        1.177109618        -78.18506814         5.532894889         153.0618733         0.216660583         35.72452426         1.020445653        -59.30680643
      1.535693e+010        1.178546676        -78.41216153         5.533442848         152.9370778        0.2171734876         35.53273817          1.02025953        -59.51378779
      1.540692e+010         1.17997909        -78.63904637         5.533963134         152.8120961        0.2176837957         35.34089529         1.020068385        -59.72076707
      1.545691e+010        1.181406793        -78.86572176         5.534455581         152.6869299         0.218191494         35.14899772         1.019872196        -59.92774227
       1.55069e+010        1.182829717        -79.09218677         5.534920026         152.5615812        0.2186965693         34.95704757         1.019670943        -60.13471137
      1.555689e+010        1.184247796        -79.31844048         5.535356309         152.4360521        0.2191990085         34.76504696         1.019464607        -60.34167234
      1.560688e+010        1.185660965        -79.54448195         5.535764269         152.3103445        0.2196987985         34.57299805         1.019253169        -60.54862312
      1.565687e+010        1.187069159        -79.77031021         5.536143751         152.1844603        0.2201959265         34.38090295         1.019036611        -60.75556167
      1.570686e+010        1.188472311        -79.99592431           5.5364946         152.0584017        0.2206903794         34.18876385         1.018814912        -60.96248592
      1.575685e+010        1.189870358        -80.22132325         5.536816664         151.9321705        0.2211821447         33.99658289         1.018588057        -61.16939379
      1.580684e+010        1.191263234        -80.44650606         5.537109791          151.805769        0.2216712098         33.80436226         1.018356027        -61.37628319
      1.585683e+010        1.192650877        -80.67147171         5.537373835          151.679199        0.2221575621         33.61210414         1.018118804        -61.58315203
      1.590682e+010        1.194033222         -80.8962192          5.53760865         151.5524627        0.2226411893         33.41981074         1.017876373        -61.78999819
      1.595681e+010        1.195410206         -81.1207475         5.537814091         151.4255622        0.2231220791         33.22748425         1.017628717        -61.99681955
       1.60068e+010        1.196781768        -81.34505556         5.537990019         151.2984995        0.2236002194         33.03512689          1.01737582        -62.20361399
      1.605679e+010        1.198147844        -81.56914234         5.538136293         151.1712768        0.2240755981         32.84274089         1.017117666        -62.41037936
      1.610678e+010        1.199508373        -81.79300676         5.538252778         151.0438961        0.2245482033         32.65032849         1.016854241        -62.61711351
      1.615677e+010        1.200863294        -82.01664776         5.538339339         150.9163596        0.2250180233         32.45789192         1.016585529        -62.82381428
      1.620676e+010        1.202212546        -82.24006424         5.538395845         150.7886694        0.2254850463         32.26543345         1.016311517         -63.0304795
      1.625675e+010        1.203556068        -82.46325512         5.538422167         150.6608277        0.2259492609         32.07295532         1.016032191          -63.237107
      1.630674e+010        1.204893801        -82.68621927         5.538418176         150.5328366        0.2264106557         31.88045981         1.015747537        -63.44369458
      1.635673e+010        1.206225685        -82.90895559          5.53838375         150.4046984        0.2268692194          31.6879492         1.015457543        -63.65024004
      1.640672e+010        1.207551662        -83.13146293         5.538318765         150.2764151        0.2273249408         31.49542578         1.015162196         -63.8567412
      1.645671e+010        1.208871672        -83.35374017         5.538223103         150.1479891        0.2277778091         31.30289184         1.014861484        -64.06319581
       1.65067e+010        1.210185658        -83.57578614         5.538096646         150.0194225        0.2282278132         31.11034968         1.014555395        -64.26960168
      1.655669e+010        1.211493564         -83.7975997         5.537939279         149.8907175        0.2286749425         30.91780161         1.014243919        -64.47595656
      1.660668e+010        1.212795331        -84.01917966         5.537750892         149.7618763        0.2291191864         30.72524994         1.013927044        -64.68225822
      1.665667e+010        1.214090903        -84.24052485         5.537531373         149.6329012        0.2295605345         30.53269701          1.01360476        -64.88850441
      1.670666e+010        1.215380225        -84.46163408         5.537280617         149.5037945        0.2299989764         30.34014515         1.013277058        -65.09469289
      1.675665e+010        1.216663242        -84.68250615         5.536998519         149.3745584        0.2304345021         30.14759668         1.012943928        -65.30082138
      1.680664e+010        1.217939898        -84.90313985         5.536684978         149.2451952        0.2308671015         29.95505396         1.012605362        -65.50688762
      1.685663e+010        1.219210139        -85.12353396         5.536339894         149.1157071        0.2312967647         29.76251934          1.01226135        -65.71288935
      1.690662e+010        1.220473913        -85.34368726          5.53596317         148.9860964        0.2317234822         29.56999518         1.011911886        -65.91882427
      1.695661e+010        1.221731165        -85.56359851         5.535554714         148.8563654        0.2321472442         29.37748383         1.011556961         -66.1246901
       1.70066e+010        1.222981843        -85.78326646         5.535114434         148.7265165        0.2325680415         29.18498766         1.011196568        -66.33048456
      1.705659e+010        1.224225896        -86.00268987         5.534642241         148.5965519        0.2329858647         28.99250906         1.010830701        -66.53620533
      1.710658e+010        1.225463272        -86.22186748         5.534138049          148.466474        0.2334007048          28.8000504         1.010459354        -66.74185012
      1.715657e+010         1.22669392        -86.44079801         5.533601776         148.3362851        0.2338125529         28.60761407          1.01008252        -66.94741662
      1.720656e+010         1.22791779         -86.6594802         5.533033341         148.2059874        0.2342214003         28.41520245         1.009700196        -67.15290251
      1.725655e+010        1.229134832        -86.87791275         5.532432667         148.0755835        0.2346272382         28.22281794         1.009312376        -67.35830548
      1.730654e+010        1.230344998        -87.09609438         5.531799678         147.9450755        0.2350300583         28.03046293         1.008919056        -67.56362319
      1.735653e+010         1.23154824         -87.3140238         5.531134303          147.814466        0.2354298523         27.83813984         1.008520232        -67.76885333
      1.740652e+010        1.232744509        -87.53169969         5.530436471         147.6837571        0.2358266121         27.64585107         1.008115901        -67.97399355
      1.745651e+010        1.233933758        -87.74912075         5.529706116         147.5529513        0.2362203297         27.45359903          1.00770606        -68.17904153
       1.75065e+010        1.235115941        -87.96628565         5.528943174         147.4220511        0.2366109974         27.26138614         1.007290707        -68.38399491
      1.755649e+010        1.236291012        -88.18319308         5.528147584         147.2910586        0.2369986076         27.06921481          1.00686984        -68.58885136
      1.760648e+010        1.237458925         -88.3998417         5.527319288         147.1599764        0.2373831528         26.87708746         1.006443457        -68.79360854
      1.765647e+010        1.238619637        -88.61623019          5.52645823         147.0288069        0.2377646257         26.68500651         1.006011558        -68.99826408
      1.770646e+010        1.239773103        -88.83235719         5.525564357         146.8975523        0.2381430194         26.49297441         1.005574143        -69.20281563
      1.775645e+010         1.24091928        -89.04822136         5.524637619         146.7662152        0.2385183268         26.30099356          1.00513121        -69.40726085
      1.780644e+010        1.242058125        -89.26382135         5.523677969         146.6347979        0.2388905412         26.10906641         1.004682761        -69.61159737
      1.785643e+010        1.243189596        -89.47915581         5.522685362         146.5033028        0.2392596561         25.91719539         1.004228797        -69.81582283
      1.790642e+010        1.244313652        -89.69422336         5.521659758         146.3717324        0.2396256651         25.72538293         1.003769318        -70.01993487
      1.795641e+010        1.245430252        -89.90902265         5.520601116         146.2400891         0.239988562         25.53363148         1.003304328        -70.22393113
       1.80064e+010        1.246539356        -90.12355231         5.519509402         146.1083752        0.2403483407         25.34194345         1.002833829        -70.42780923
      1.805639e+010        1.247640925        -90.33781095         5.518384583         145.9765933        0.2407049955         25.15032131         1.002357822        -70.63156683
      1.810638e+010         1.24873492        -90.55179721         5.517226627         145.8447456        0.2410585206         24.95876748         1.001876313        -70.83520154
      1.815637e+010        1.249821304         -90.7655097         5.516035507         145.7128348        0.2414089105          24.7672844         1.001389304        -71.03871101
      1.820636e+010        1.250900038        -90.97894703         5.514811199         145.5808632          0.24175616         24.57587452         1.000896799        -71.24209286
      1.825635e+010        1.251971086        -91.19210781         5.513553681         145.4488331         0.242100264         24.38454028         1.000398805        -71.44534473
      1.830634e+010        1.253034413        -91.40499066         5.512262935         145.3167472        0.2424412174         24.19328412         0.999895325        -71.64846424
      1.835633e+010        1.254089982        -91.61759418         5.510938943         145.1846078        0.2427790157         24.00210847        0.9993863657        -71.85144904
      1.840632e+010        1.255137761        -91.82991697         5.509581692         145.0524173        0.2431136541         23.81101579        0.9988719333        -72.05429675
      1.845631e+010        1.256177713        -92.04195763         5.508191173         144.9201782        0.2434451284          23.6200085        0.9983520342        -72.25700501
       1.85063e+010        1.257209808        -92.25371476         5.506767377         144.7878929        0.2437734344         23.42908904        0.9978266756        -72.45957145
      1.855629e+010        1.258234011        -92.46518697           5.5053103         144.6555638         0.244098568         23.23825985         0.997295865        -72.66199371
      1.860628e+010        1.259250292        -92.67637283          5.50381994         144.5231935        0.2444205255         23.04752337        0.9967596106        -72.86426943
      1.865627e+010        1.260258619        -92.88727095         5.502296296         144.3907844        0.2447393032         22.85688203        0.9962179208        -73.06639625
      1.870626e+010        1.261258962        -93.09787992         5.500739374         144.2583388        0.2450548977         22.66633826        0.9956708046         -73.2683718
      1.875625e+010        1.262251291        -93.30819834         5.499149179         144.1258592        0.2453673058         22.47589449        0.9951182714        -73.47019374
      1.880624e+010        1.263235578        -93.51822478          5.49752572         143.9933482        0.2456765243         22.28555315        0.9945603311        -73.67185971
      1.885623e+010        1.264211794        -93.72795784          5.49586901          143.860808        0.2459825506         22.09531665        0.9939969939        -73.87336735
      1.890622e+010        1.265179911        -93.93739612         5.494179063         143.7282412        0.2462853818         21.90518743        0.9934282708        -74.07471433
      1.895621e+010        1.266139904         -94.1465382         5.492455897         143.5956502        0.2465850155          21.7151679        0.9928541729         -74.2758983
       1.90062e+010        1.267091746        -94.35538267         5.490699533         143.4630374        0.2468814495         21.52526047        0.9922747119        -74.47691691
      1.905619e+010        1.268035412        -94.56392812         5.488909992         143.3304053        0.2471746815         21.33546755           0.9916899        -74.67776783
      1.910618e+010        1.268970877        -94.77217315         5.487087301         143.1977563        0.2474647098         21.14579155        0.9910997497        -74.87844872
      1.915617e+010        1.269898117        -94.98011634         5.485231489         143.0650928        0.2477515326         20.95623488         0.990504274        -75.07895726
      1.920616e+010        1.270817109        -95.18775629         5.483342587         142.9324172        0.2480351484         20.76679993        0.9899034863        -75.27929113
      1.925615e+010        1.271727831         -95.3950916         5.481420629          142.799732        0.2483155559          20.5774891        0.9892974007        -75.47944799
      1.930614e+010        1.272630261        -95.60212085         5.479465652         142.6670396        0.2485927539         20.38830478        0.9886860313        -75.67942554
      1.935613e+010        1.273524378        -95.80884264         5.477477694         142.5343424        0.2488667415         20.19924934        0.9880693931        -75.87922147
      1.940612e+010        1.274410163        -96.01525559         5.475456799         142.4016428        0.2491375179         20.01032518         0.987447501        -76.07883347
      1.945611e+010        1.275287594        -96.22135828         5.473403011         142.2689433        0.2494050826         19.82153466        0.9868203708        -76.27825924
       1.95061e+010        1.276156654        -96.42714932         5.471316378         142.1362462        0.2496694352         19.63288015        0.9861880184        -76.47749649
      1.955609e+010        1.277017324        -96.63262732         5.469196949          142.003554        0.2499305755         19.44436402        0.9855504604        -76.67654293
      1.960608e+010        1.277869588        -96.83779088         5.467044778          141.870869        0.2501885036         19.25598862        0.9849077135        -76.87539628
      1.965607e+010        1.278713428        -97.04263862         5.464859919         141.7381936        0.2504432197          19.0677563        0.9842597951        -77.07405427
      1.970606e+010        1.279548829        -97.24716916         5.462642431         141.6055302        0.2506947241          18.8796694        0.9836067229        -77.27251462
      1.975605e+010        1.280375775        -97.45138112         5.460392374         141.4728812        0.2509430175         18.69173027        0.9829485149        -77.47077509
      1.980604e+010        1.281194253        -97.65527311         5.458109812         141.3402491        0.2511881005         18.50394123        0.9822851896         -77.6688334
      1.985603e+010        1.282004248        -97.85884376          5.45579481          141.207636        0.2514299743          18.3163046        0.9816167659        -77.86668732
      1.990602e+010        1.282805747         -98.0620917         5.453447437         141.0750445        0.2516686399          18.1288227        0.9809432632         -78.0643346
      1.995601e+010        1.283598738        -98.26501558         5.451067762         140.9424768        0.2519040987         17.94149784        0.9802647011        -78.26177302
        2.0006e+010         1.28438321        -98.46761402         5.448655861         140.8099354        0.2521363523         17.75433232        0.9795810996        -78.45900035
      2.005599e+010        1.285159152        -98.66988568         5.446211807         140.6774225        0.2523654023         17.56732843        0.9788924793        -78.65601438
      2.010598e+010        1.285926553         -98.8718292          5.44373568         140.5449405        0.2525912506         17.38048845        0.9781988609        -78.85281289
      2.015597e+010        1.286685404        -99.07344323          5.44122756         140.4124918        0.2528138994         17.19381466        0.9775002657         -79.0493937
      2.020596e+010        1.287435697        -99.27472644         5.438687531         140.2800787        0.2530333509         17.00730933        0.9767967152        -79.24575461
      2.025595e+010        1.288177423        -99.47567748         5.436115677         140.1477034        0.2532496077         16.82097471        0.9760882315        -79.44189343
      2.030594e+010        1.288910575        -99.67629504         5.433512087         140.0153683        0.2534626723         16.63481306        0.9753748367        -79.63780801
      2.035593e+010        1.289635147        -99.87657779         5.430876852         139.8830757        0.2536725476         16.44882662        0.9746565537        -79.83349617
      2.040592e+010        1.290351133        -100.0765244         5.428210063         139.7508279        0.2538792365         16.26301761        0.9739334054        -80.02895577
      2.045591e+010        1.291058527        -100.2761336         5.425511816         139.6186272        0.2540827425         16.07738825        0.9732054152        -80.22418465
       2.05059e+010        1.291757326         -100.475404         5.422782208         139.4864758        0.2542830687         15.89194077        0.9724726069         -80.4191807
      2.055589e+010        1.292447524        -100.6743344         5.420021339          139.354376        0.2544802187         15.70667736        0.9717350046        -80.61394178
      2.060588e+010         1.29312912        -100.8729234         5.417229311         139.2223301        0.2546741964         15.52160021        0.9709926325        -80.80846578
      2.065587e+010        1.293802111        -101.0711698         5.414406227         139.0903403        0.2548650056          15.3367115        0.9702455156         -81.0027506
      2.070586e+010        1.294466495        -101.2690724         5.411552194         138.9584089        0.2550526504         15.15201341        0.9694936789        -81.19679416
      2.075585e+010        1.295122271        -101.4666297         5.408667321         138.8265381        0.2552371351          14.9675081        0.9687371477        -81.39059436
      2.080584e+010        1.295769439        -101.6638407         5.405751718         138.6947301        0.2554184641         14.78319771        0.9679759479        -81.58414914
      2.085583e+010        1.296407998        -101.8607039         5.402805499         138.5629871        0.2555966422         14.59908438        0.9672101055        -81.77745645
      2.090582e+010        1.297037951        -102.0572182         5.399828777         138.4313114         0.255771674         14.41517025        0.9664396467        -81.97051423
      2.095581e+010        1.297659299        -102.2533824         5.396821671          138.299705        0.2559435646         14.23145742        0.9656645984        -82.16332045
       2.10058e+010        1.298272044        -102.4491951         5.393784299         138.1681703         0.256112319         14.04794801        0.9648849873        -82.35587308
      2.105579e+010        1.298876189        -102.6446552         5.390716782         138.0367094        0.2562779427          13.8646441         0.964100841        -82.54817012
      2.110578e+010        1.299471737        -102.8397615         5.387619245         137.9053244        0.2564404411         13.68154778        0.9633121867        -82.74020957
      2.115577e+010        1.300058694        -103.0345128         5.384491811         137.7740175        0.2565998199         13.49866112        0.9625190525        -82.93198943
      2.120576e+010        1.300637064        -103.2289078         5.381334609         137.6427908        0.2567560848         13.31598617        0.9617214664        -83.12350774
      2.125575e+010        1.301206852        -103.4229453         5.378147767         137.5116464        0.2569092418         13.13352498        0.9609194569        -83.31476253
      2.130574e+010        1.301768066        -103.6166243         5.374931416         137.3805865        0.2570592972         12.95127959        0.9601130525        -83.50575184
      2.135573e+010        1.302320711        -103.8099435         5.371685691         137.2496132        0.2572062572         12.76925201        0.9593022824        -83.69647375
      2.140572e+010        1.302864796        -104.0029018         5.368410724         137.1187286        0.2573501282         12.58744425        0.9584871756        -83.88692633
      2.145571e+010        1.303400328         -104.195498         5.365106654         136.9879346         0.257490917         12.40585831        0.9576677616        -84.07710767
       2.15057e+010        1.303927316         -104.387731         5.361773618         136.8572335        0.2576286303         12.22449616        0.9568440702        -84.26701586
      2.155569e+010         1.30444577        -104.5795997         5.358411757         136.7266273        0.2577632751         12.04335978        0.9560161314        -84.45664903
      2.160568e+010          1.3049557        -104.7711028         5.355021213         136.5961179        0.2578948584         11.86245112        0.9551839752        -84.64600531
      2.165567e+010        1.305457116        -104.9622394         5.351602129         136.4657075        0.2580233875         11.68177213        0.9543476323        -84.83508283
      2.170566e+010         1.30595003        -105.1530084         5.348154652         136.3353981        0.2581488699         11.50132473        0.9535071332        -85.02387976
      2.175565e+010        1.306434453        -105.3434085         5.344678929         136.2051916        0.2582713131         11.32111085        0.9526625089        -85.21239426
      2.180564e+010        1.306910398        -105.5334388         5.341175107         136.0750901        0.2583907247         11.14113237        0.9518137904        -85.40062452
      2.185563e+010        1.307377877        -105.7230982         5.337643339         135.9450955        0.2585071128         10.96139119        0.9509610093        -85.58856873
      2.190562e+010        1.307836906        -105.9123857         5.334083775         135.8152098        0.2586204852         10.78188918         0.950104197        -85.77622511
      2.195561e+010        1.308287496        -106.1013001          5.33049657         135.6854349        0.2587308502         10.60262821        0.9492433852        -85.96359189
       2.20056e+010        1.308729664        -106.2898405         5.326881878         135.5557729         0.258838216         10.42361011         0.948378606        -86.15066731
      2.205559e+010        1.309163425        -106.4780058         5.323239856         135.4262256        0.2589425911         10.24483672        0.9475098915        -86.33744962
      2.210558e+010        1.309588794         -106.665795         5.319570663         135.2967949        0.2590439841         10.06630986        0.9466372741         -86.5239371
      2.215557e+010        1.310005788        -106.8532071         5.315874458         135.1674827        0.2591424036         9.888031321        0.9457607863        -86.71012803
      2.220556e+010        1.310414424        -107.0402412         5.312151402          135.038291        0.2592378585         9.710002902        0.9448804609         -86.8960207
      2.225555e+010         1.31081472        -107.2268962         5.308401657         134.9092216        0.2593303579         9.532226372        0.9439963307        -87.08161345
      2.230554e+010        1.311206693        -107.4131712         5.304625387         134.7802763        0.2594199108          9.35470349        0.9431084288        -87.26690459
      2.235553e+010        1.311590362        -107.5990652         5.300822758          134.651457        0.2595065265         9.177435999        0.9422167885        -87.45189247
      2.240552e+010        1.311965747        -107.7845772         5.296993935         134.5227656        0.2595902144         9.000425628        0.9413214432        -87.63657546
      2.245551e+010        1.312332866        -107.9697065         5.293139086         134.3942037         0.259670984          8.82367409        0.9404224264        -87.82095192
       2.25055e+010         1.31269174         -108.154452         5.289258381         134.2657734        0.2597488449         8.647183084        0.9395197717        -88.00502026
      2.255549e+010        1.313042391        -108.3388128         5.285351989         134.1374762         0.259823807         8.470954293        0.9386135132        -88.18877887
      2.260548e+010        1.313384838         -108.522788         5.281420082          134.009314        0.2598958801         8.294989385        0.9377036847        -88.37222619
      2.265547e+010        1.313719104        -108.7063768         5.277462832         133.8812886        0.2599650742         8.119290012        0.9367903203        -88.55536065
      2.270546e+010         1.31404521        -108.8895782         5.273480414         133.7534017        0.2600313994         7.943857812        0.9358734544         -88.7381807
      2.275545e+010         1.31436318        -109.0723915            5.269473          133.625655        0.2600948661         7.768694405        0.9349531213        -88.92068482
      2.280544e+010        1.314673037        -109.2548158         5.265440768         133.4980503        0.2601554845           7.5938014        0.9340293555        -89.10287148
      2.285543e+010        1.314974803        -109.4368502         5.261383895         133.3705891        0.2602132653         7.419180385        0.9331021915         -89.2847392
      2.290542e+010        1.315268504        -109.6184939         5.257302557         133.2432733        0.2602682188         7.244832936        0.9321716642        -89.46628649
      2.295541e+010        1.315554164        -109.7997461         5.253196934         133.1161045         0.260320356         7.070760612        0.9312378084        -89.64751188
       2.30054e+010        1.315831807        -109.9806061         5.249067206         132.9890843        0.2603696875         6.896964956        0.9303006589        -89.82841393
      2.305539e+010         1.31610146         -110.161073         5.244913554         132.8622144        0.2604162243         6.723447495        0.9293602508         -90.0089912
      2.310538e+010        1.316363148        -110.3411461         5.240736158         132.7354963        0.2604599774         6.550209742        0.9284166192        -90.18924227
      2.315537e+010        1.316616897        -110.5208246         5.236535202         132.6089318         0.260500958         6.377253191        0.9274697993        -90.36916575
      2.320536e+010        1.316862734        -110.7001078         5.232310869         132.4825223        0.2605391773         6.204579322        0.9265198263        -90.54876024
      2.325535e+010        1.317100686         -110.878995         5.228063343         132.3562695        0.2605746466           6.0321896        0.9255667356        -90.72802438
      2.330534e+010        1.317330781        -111.0574854         5.223792809         132.2301749        0.2606073774         5.860085471        0.9246105626        -90.90695681
      2.335533e+010        1.317553046        -111.2355783         5.219499452         132.1042401        0.2606373812         5.688268367        0.9236513428        -91.08555621
      2.340532e+010        1.317767511         -111.413273          5.21518346         131.9784666        0.2606646696         5.516739703        0.9226891117        -91.26382124
      2.345531e+010        1.317974204        -111.5905689         5.210845018         131.8528559        0.2606892543         5.345500878        0.9217239049        -91.44175062
       2.35053e+010        1.318173153        -111.7674654         5.206484315         131.7274094        0.2607111471         5.174553275         0.920755758        -91.61934304
      2.355529e+010         1.31836439        -111.9439616          5.20210154         131.6021288          0.26073036         5.003898262        0.9197847068        -91.79659725
      2.360528e+010        1.318547942        -112.1200571          5.19769688         131.4770154        0.2607469048         4.833537188        0.9188107869        -91.97351199
      2.365527e+010        1.318723842        -112.2957512         5.193270527         131.3520707        0.2607607937         4.663471388        0.9178340342        -92.15008602
      2.370526e+010        1.318892118        -112.4710432         5.188822669         131.2272961        0.2607720389          4.49370218        0.9168544843        -92.32631812
      2.375525e+010        1.319052804        -112.6459327         5.184353498         131.1026931        0.2607806525         4.324230865        0.9158721732        -92.50220709
      2.380524e+010        1.319205928        -112.8204189         5.179863205          130.978263        0.2607866468         4.155058729        0.9148871367        -92.67775174
      2.385523e+010        1.319351525        -112.9945014         5.175351982         130.8540073        0.2607900343         3.986187041        0.9138994106         -92.8529509
      2.390522e+010        1.319489624        -113.1681796          5.17082002         130.7299272        0.2607908274         3.817617053        0.9129090308        -93.02780342
      2.395521e+010         1.31962026        -113.3414529         5.166267512         130.6060242        0.2607890386         3.649350003        0.9119160333        -93.20230817
       2.40052e+010        1.319743463        -113.5143208         5.161694651         130.4822996        0.2607846806         3.481387109        0.9109204538        -93.37646401
      2.405519e+010        1.319859268        -113.6867827         5.157101631         130.3587548         0.260777766         3.313729576        0.9099223282        -93.55026985
      2.410518e+010        1.319967708        -113.8588383         5.152488645         130.2353909        0.2607683076         3.146378592        0.9089216926         -93.7237246
      2.415517e+010        1.320068816         -114.030487         5.147855886         130.1122094        0.2607563182         2.979335327        0.9079185826         -93.8968272
      2.420516e+010        1.320162626        -114.2017283          5.14320355         129.9892114        0.2607418106         2.812600935        0.9069130342        -94.06957658
      2.425515e+010        1.320249173        -114.3725618         5.138531831         129.8663983        0.2607247979         2.646176557        0.9059050833        -94.24197171
      2.430514e+010         1.32032849         -114.542987         5.133840923         129.7437713         0.260705293         2.480063313        0.9048947656        -94.41401157
      2.435513e+010        1.320400613        -114.7130034         5.129131021         129.6213316        0.2606833089          2.31426231        0.9038821169        -94.58569515
      2.440512e+010        1.320465576        -114.8826108         5.124402321         129.4990805        0.2606588589         2.148774637        0.9028671731        -94.75702148
      2.445511e+010        1.320523415        -115.0518085         5.119655018          129.377019         0.260631956         1.983601368        0.9018499698        -94.92798957
       2.45051e+010        1.320574165        -115.2205964         5.114889307         129.2551484        0.2606026135         1.818743559        0.9008305428        -95.09859848
      2.455509e+010        1.320617862        -115.3889739         5.110105384           129.13347        0.2605708447         1.654202252        0.8998089276        -95.26884726
      2.460508e+010        1.320654543        -115.5569407         5.105303445         129.0119847        0.2605366628         1.489978471          0.89878516          -95.438735
      2.465507e+010        1.320684242        -115.7244965         5.100483685         128.8906937        0.2605000814         1.326073226        0.8977592754         -95.6082608
      2.470506e+010        1.320706998        -115.8916409           5.0956463         128.7695982        0.2604611138         1.162487508        0.8967313094        -95.77742375
      2.475505e+010        1.320722845        -116.0583737         5.090791486         128.6486993        0.2604197735        0.9992222932        0.8957012974          -95.946223
      2.480504e+010        1.320731823        -116.2246943         5.085919439          128.527998        0.2603760739        0.8362785429        0.8946692748        -96.11465769
      2.485503e+010        1.320733966        -116.3906027         5.081030353         128.4074954        0.2603300287        0.6736572009        0.8936352769        -96.28272697
      2.490502e+010        1.320729314        -116.5560985         5.076124426         128.2871926        0.2602816515        0.5113591954        0.8925993391        -96.45043003
      2.495501e+010        1.320717903        -116.7211814         5.071201853         128.1670905        0.2602309558        0.3493854388        0.8915614964        -96.61776606
        2.5005e+010        1.320699771        -116.8858511         5.066262829         128.0471903        0.2601779554        0.1877368274         0.890521784        -96.78473427
      2.505499e+010        1.320674956        -117.0501075         5.061307549         127.9274929        0.2601226639       0.02641424173        0.8894802369        -96.95133389
      2.510498e+010        1.320643496        -117.2139502          5.05633621         127.8079993        0.2600650952       -0.1345814535        0.8884368901        -97.11756415
      2.515497e+010        1.320605429        -117.3773791         5.051349005         127.6887104        0.2600052629       -0.2952494095        0.8873917784        -97.28342432
      2.520496e+010        1.320560795        -117.5403939         5.046346131         127.5696274        0.2599431808        -0.455588793        0.8863449366        -97.44891368
      2.525495e+010         1.32050963        -117.7029946         5.041327781         127.4507509        0.2598788629       -0.6155987867        0.8852963994         -97.6140315
      2.530494e+010        1.320451975        -117.8651807          5.03629415         127.3320822        0.2598123228       -0.7752785888        0.8842462014        -97.77877711
      2.535493e+010        1.320387868        -118.0269523         5.031245433         127.2136219        0.2597435746       -0.9346274129         0.883194377        -97.94314981
      2.540492e+010        1.320317348        -118.1883092         5.026181824          127.095371        0.2596726321        -1.093644488        0.8821409608        -98.10714895
      2.545491e+010        1.320240454        -118.3492512         5.021103516         126.9773305        0.2595995093         -1.25232906        0.8810859869        -98.27077389
       2.55049e+010        1.320157226        -118.5097781         5.016010702         126.8595011          0.25952422        -1.410680388        0.8800294895        -98.43402399
      2.555489e+010        1.320067703        -118.6698899         5.010903576         126.7418837        0.2594467783        -1.568697749        0.8789715027        -98.59689864
      2.560488e+010        1.319971924        -118.8295865         5.005782331         126.6244792         0.259367198        -1.726380432        0.8779120604        -98.75939724
      2.565487e+010         1.31986993        -118.9888678         5.000647159         126.5072883        0.2592854933        -1.883727744        0.8768511966        -98.92151921
      2.570486e+010        1.319761759        -119.1477336         4.995498251         126.3903119        0.2592016782        -2.040739006        0.8757889449        -99.08326398
      2.575485e+010        1.319647453         -119.306184           4.9903358         126.2735508        0.2591157665        -2.197413555        0.8747253388        -99.24463099
      2.580484e+010        1.319527051        -119.4642188         4.985159997         126.1570058        0.2590277724        -2.353750742         0.873660412        -99.40561972
      2.585483e+010        1.319400592        -119.6218381         4.979971032         126.0406775          0.25893771        -2.509749934        0.8725941977        -99.56622963
      2.590482e+010        1.319268118        -119.7790418         4.974769096         125.9245668        0.2588455931        -2.665410511        0.8715267291        -99.72646022
      2.595481e+010        1.319129669        -119.9358299         4.969554379         125.8086744         0.258751436        -2.820731871        0.8704580394          -99.886311
       2.60048e+010        1.318985284        -120.0922024          4.96432707         125.6930009        0.2586552527        -2.975713424        0.8693881615        -100.0457815
      2.605479e+010        1.318835004        -120.2481593         4.959087358         125.5775472        0.2585570572        -3.130354595        0.8683171281        -100.2048713
      2.610478e+010         1.31867887        -120.4037006          4.95383543         125.4623138        0.2584568636        -3.284654825        0.8672449721        -100.3635798
      2.615477e+010        1.318516922        -120.5588263         4.948571476         125.3473016        0.2583546859        -3.438613569        0.8661717259        -100.5219067
      2.620476e+010        1.318349202        -120.7135365         4.943295683          125.232511        0.2582505382        -3.592230296        0.8650974218        -100.6798516
      2.625475e+010        1.318175748        -120.8678313         4.938008236         125.1179428        0.2581444347        -3.745504489        0.8640220922        -100.8374141
      2.630474e+010        1.317996603        -121.0217107         4.932709322         125.0035976        0.2580363893        -3.898435647        0.8629457691        -100.9945937
      2.635473e+010        1.317811806        -121.1751749         4.927399127          124.889476        0.2579264161        -4.051023281        0.8618684846        -101.1513901
      2.640472e+010        1.317621399        -121.3282238         4.922077836         124.7755786        0.2578145291        -4.203266919        0.8607902702         -101.307803
      2.645471e+010        1.317425423        -121.4808576         4.916745632          124.661906        0.2577007424          -4.3551661        0.8597111578        -101.4638319
       2.65047e+010        1.317223917        -121.6330764           4.9114027         124.5484587          0.25758507        -4.506720379        0.8586311788        -101.6194766
      2.655469e+010        1.317016924        -121.7848804         4.906049222         124.4352374         0.257467526        -4.657929325        0.8575503645        -101.7747368
      2.660468e+010        1.316804484        -121.9362697         4.900685381         124.3222426        0.2573481243        -4.808792519         0.856468746        -101.9296121
      2.665467e+010        1.316586637        -122.0872443         4.895311359         124.2094748         0.257226879        -4.959309557        0.8553863544        -102.0841023
      2.670466e+010        1.316363426        -122.2378046         4.889927336         124.0969345         0.257103804        -5.109480048        0.8543032205         -102.238207
      2.675465e+010        1.316134889        -122.3879507         4.884533492         123.9846223        0.2569789134        -5.259303617         0.853219375        -102.3919261
      2.680464e+010         1.31590107        -122.5376827         4.879130008         123.8725386         0.256852221        -5.408779899        0.8521348483        -102.5452593
      2.685463e+010        1.315662007        -122.6870008         4.873717062         123.7606839        0.2567237408        -5.557908544        0.8510496708        -102.6982063
      2.690462e+010        1.315417743        -122.8359054         4.868294832         123.6490586        0.2565934867        -5.706689215        0.8499638727        -102.8507669
      2.695461e+010        1.315168318        -122.9843964         4.862863495         123.5376633        0.2564614726         -5.85512159        0.8488774839         -103.002941
       2.70046e+010        1.314913773        -123.1324743         4.857423228         123.4264984        0.2563277125        -6.003205356        0.8477905342        -103.1547283
      2.705459e+010        1.314654148        -123.2801392         4.851974206         123.3155642        0.2561922201        -6.150940218        0.8467030534        -103.3061287
      2.710458e+010        1.314389485        -123.4273915         4.846516605         123.2048612        0.2560550093         -6.29832589        0.8456150708         -103.457142
      2.715457e+010        1.314119824        -123.5742312         4.841050599         123.0943899        0.2559160939        -6.445362101        0.8445266157         -103.607768
      2.720456e+010        1.313845207        -123.7206588         4.835576362         122.9841505        0.2557754877        -6.592048591        0.8434377172        -103.7580066
      2.725455e+010        1.313565672        -123.8666745         4.830094065         122.8741435        0.2556332044        -6.738385115        0.8423484044        -103.9078576
      2.730454e+010        1.313281263        -124.0122785          4.82460388         122.7643692        0.2554892579        -6.884371439        0.8412587058        -104.0573211
      2.735453e+010        1.312992018        -124.1574713         4.819105979          122.654828        0.2553436617         -7.03000734          0.84016865        -104.2063968
      2.740452e+010        1.312697978        -124.3022531         4.813600531         122.5455201        0.2551964297        -7.175292611        0.8390782655        -104.3550847
      2.745451e+010        1.312399184        -124.4466242         4.808087706         122.4364461        0.2550475753        -7.320227055        0.8379875804        -104.5033847
       2.75045e+010        1.312095677        -124.5905849         4.802567672          122.327606        0.2548971123        -7.464810487        0.8368966227        -104.6512967
      2.755449e+010        1.311787497        -124.7341357         4.797040596         122.2190004        0.2547450542        -7.609042735        0.8358054203        -104.7988207
      2.760448e+010        1.311474683        -124.8772768         4.791506645         122.1106293        0.2545914146        -7.752923637        0.8347140007        -104.9459566
      2.765447e+010        1.311157277        -125.0200086         4.785965985         122.0024932         0.254436207        -7.896453047        0.8336223913        -105.0927045
      2.770446e+010        1.310835318        -125.1623315          4.78041878         121.8945922        0.2542794449        -8.039630825        0.8325306195        -105.2390643
      2.775445e+010        1.310508847        -125.3042459         4.774865195         121.7869267        0.2541211417        -8.182456849        0.8314387123         -105.385036
      2.780444e+010        1.310177903        -125.4457521         4.769305392         121.6794969        0.2539613108        -8.324931003        0.8303466965        -105.5306196
      2.785443e+010        1.309842527        -125.5868506         4.763739533         121.5723029        0.2537999657        -8.467053186        0.8292545989        -105.6758152
      2.790442e+010        1.309502758        -125.7275418         4.758167779         121.4653451        0.2536371196        -8.608823307        0.8281624458        -105.8206227
      2.795441e+010        1.309158636         -125.867826         4.752590292         121.3586236        0.2534727859        -8.750241287        0.8270702636        -105.9650422
       2.80044e+010        1.308810201        -126.0077038         4.747007229         121.2521386        0.2533069778        -8.891307057        0.8259780783        -106.1090739
      2.805439e+010        1.308457492        -126.1471755         4.741418749         121.1458904        0.2531397085         -9.03202056        0.8248859159        -106.2527176
      2.810438e+010        1.308100549        -126.2862415          4.73582501          121.039879        0.2529709913        -9.172381749         0.823793802        -106.3959736
      2.815437e+010        1.307739411        -126.4249025         4.730226168         120.9341047        0.2528008393        -9.312390591        0.8227017622        -106.5388419
      2.820436e+010        1.307374117        -126.5631587         4.724622379         120.8285675        0.2526292654        -9.452047058        0.8216098217        -106.6813226
      2.825435e+010        1.307004708        -126.7010107         4.719013796         120.7232677        0.2524562829        -9.591351139        0.8205180056        -106.8234159
      2.830434e+010         1.30663122         -126.838459         4.713400574         120.6182054        0.2522819047        -9.730302829        0.8194263389        -106.9651218
      2.835433e+010        1.306253695         -126.975504         4.707782864         120.5133806        0.2521061438        -9.868902136        0.8183348462        -107.1064404
      2.840432e+010         1.30587217        -127.1121463         4.702160819         120.4087935        0.2519290131        -10.00714908        0.8172435521         -107.247372
      2.845431e+010        1.305486684        -127.2483863         4.696534589         120.3044443        0.2517505255        -10.14504368        0.8161524809        -107.3879167
       2.85043e+010        1.305097275        -127.3842246         4.690904324         120.2003329        0.2515706937        -10.28258598        0.8150616567        -107.5280747
      2.855429e+010        1.304703983        -127.5196616         4.685270172         120.0964595        0.2513895306        -10.41977603        0.8139711034         -107.667846
      2.860428e+010        1.304306846         -127.654698         4.679632281         119.9928241         0.251207049        -10.55661389        0.8128808447         -107.807231
      2.865427e+010        1.303905901        -127.7893342         4.673990797         119.8894267        0.2510232614        -10.69309962        0.8117909041        -107.9462298
      2.870426e+010        1.303501188        -127.9235708         4.668345866         119.7862676        0.2508381805         -10.8292333        0.8107013049        -108.0848425
      2.875425e+010        1.303092743        -128.0574084         4.662697632         119.6833466         0.250651819        -10.96501502        0.8096120703        -108.2230696
      2.880424e+010        1.302680605        -128.1908474          4.65704624         119.5806637        0.2504641893        -11.10044487        0.8085232231         -108.360911
      2.885423e+010        1.302264811        -128.3238886         4.651391831         119.4782191        0.2502753039        -11.23552296        0.8074347861        -108.4983672
      2.890422e+010        1.301845399        -128.4565324         4.645734547         119.3760128        0.2500851753        -11.37024942        0.8063467818        -108.6354383
      2.895421e+010        1.301422407        -128.5887794         4.640074529         119.2740446        0.2498938159        -11.50462435        0.8052592325        -108.7721246
       2.90042e+010        1.300995872        -128.7206302         4.634411915         119.1723147        0.2497012379         -11.6386479        0.8041721603        -108.9084264
      2.905419e+010         1.30056583        -128.8520855         4.628746846          119.070823        0.2495074537        -11.77232021        0.8030855871        -109.0443438
      2.910418e+010        1.300132319        -128.9831458         4.623079457         118.9695695        0.2493124755        -11.90564142        0.8019995347        -109.1798773
      2.915417e+010        1.299695375        -129.1138117         4.617409886         118.8685541        0.2491163154        -12.03861171        0.8009140244        -109.3150271
      2.920416e+010        1.299255037        -129.2440839         4.611738267         118.7677767        0.2489189856        -12.17123125        0.7998290778        -109.4497935
      2.925415e+010        1.298811338        -129.3739629         4.606064736         118.6672375        0.2487204981         -12.3035002        0.7987447158        -109.5841769
      2.930414e+010        1.298364318        -129.5034495         4.600389425         118.5669362        0.2485208649        -12.43541875        0.7976609593        -109.7181774
      2.935413e+010         1.29791401        -129.6325442         4.594712467         118.4668727         0.248320098        -12.56698711        0.7965778292        -109.8517955
      2.940412e+010        1.297460453        -129.7612477         4.589033993         118.3670472        0.2481182094        -12.69820547        0.7954953458        -109.9850315
      2.945411e+010        1.297003681        -129.8895606         4.583354133         118.2674593        0.2479152107        -12.82907406        0.7944135296        -110.1178858
       2.95041e+010         1.29654373        -130.0174837         4.577673016         118.1681091        0.2477111139        -12.95959307        0.7933324006        -110.2503586
      2.955409e+010        1.296080636        -130.1450175         4.571990772         118.0689964        0.2475059306        -13.08976276        0.7922519787        -110.3824505
      2.960408e+010        1.295614434        -130.2721627         4.566307526         117.9701211        0.2472996726        -13.21958334        0.7911722838        -110.5141616
      2.965407e+010         1.29514516        -130.3989201         4.560623404         117.8714831        0.2470923514        -13.34905507        0.7900933352        -110.6454924
      2.970406e+010        1.294672849        -130.5252902         4.554938533         117.7730823        0.2468839785         -13.4781782        0.7890151524        -110.7764434
      2.975405e+010        1.294197535        -130.6512738         4.549253036         117.6749185        0.2466745656        -13.60695298        0.7879377544        -110.9070148
      2.980404e+010        1.293719254        -130.7768716         4.543567035         117.5769916         0.246464124        -13.73537969        0.7868611602        -111.0372071
      2.985403e+010         1.29323804        -130.9020843         4.537880654         117.4793014        0.2462526651        -13.86345859        0.7857853886        -111.1670207
      2.990402e+010        1.292753928        -131.0269125         4.532194012         117.3818478        0.2460402002        -13.99118997         0.784710458         -111.296456
      2.995401e+010        1.292266951        -131.1513571          4.52650723         117.2846306        0.2458267407        -14.11857412        0.7836363869        -111.4255134
        3.0004e+010        1.291777144        -131.2754186         4.520820427         117.1876496        0.2456122977        -14.24561134        0.7825631934        -111.5541934
      3.005399e+010        1.291284541        -131.3990979          4.51513372         117.0909046        0.2453968823        -14.37230193        0.7814908954        -111.6824964
      3.010398e+010        1.290789176        -131.5223956         4.509447226         116.9943955        0.2451805057        -14.49864619        0.7804195107        -111.8104229
      3.015397e+010        1.290291081        -131.6453125         4.503761062          116.898122        0.2449631788        -14.62464445        0.7793490569        -111.9379733
      3.020396e+010        1.289790291        -131.7678493         4.498075341          116.802084        0.2447449127        -14.75029703        0.7782795515         -112.065148
      3.025395e+010        1.289286839        -131.8900068         4.492390178         116.7062812        0.2445257183        -14.87560426        0.7772110115        -112.1919476
      3.030394e+010        1.288780758        -132.0117857         4.486705685         116.6107135        0.2443056063        -15.00056648         0.776143454        -112.3183724
      3.035393e+010        1.288272081        -132.1331868         4.481021974         116.5153805        0.2440845877        -15.12518403        0.7750768958        -112.4444231
      3.040392e+010        1.287760839        -132.2542108         4.475339156         116.4202821         0.243862673        -15.24945727        0.7740113536        -112.5701001
      3.045391e+010        1.287247067        -132.3748584          4.46965734          116.325418         0.243639873        -15.37338654        0.7729468437        -112.6954038
       3.05039e+010        1.286730796        -132.4951306         4.463976635          116.230788        0.2434161983        -15.49697222        0.7718833824        -112.8203348
      3.055389e+010        1.286212058        -132.6150279         4.458297149         116.1363919        0.2431916594        -15.62021467        0.7708209858        -112.9448935
      3.060388e+010        1.285690886        -132.7345512         4.452618988         116.0422293        0.2429662669        -15.74311426        0.7697596698        -113.0690806
      3.065387e+010         1.28516731        -132.8537013         4.446942258            115.9483         0.242740031        -15.86567139        0.7686994501        -113.1928965
      3.070386e+010        1.284641364         -132.972479         4.441267064         115.8546037        0.2425129623        -15.98788643        0.7676403421        -113.3163417
      3.075385e+010        1.284113077         -133.090885         4.435593508         115.7611402        0.2422850709        -16.10975978        0.7665823612        -113.4394168
      3.080384e+010        1.283582482        -133.2089202         4.429921695         115.6679092        0.2420563672        -16.23129184        0.7655255225        -113.5621223
      3.085383e+010        1.283049609        -133.3265853         4.424251725         115.5749103        0.2418268612        -16.35248301         0.764469841        -113.6844588
      3.090382e+010        1.282514489        -133.4438811         4.418583699         115.4821434        0.2415965631         -16.4733337        0.7634153315        -113.8064268
      3.095381e+010        1.281977153        -133.5608084         4.412917717          115.389608        0.2413654831        -16.59384433        0.7623620085        -113.9280268
       3.10038e+010        1.281437631        -133.6773681         4.407253877          115.297304        0.2411336309        -16.71401532        0.7613098865        -114.0492594
      3.105379e+010        1.280895954         -133.793561         4.401592277         115.2052309        0.2409010167         -16.8338471        0.7602589797        -114.1701253
      3.110378e+010        1.280352152        -133.9093879         4.395933014         115.1133885        0.2406676501        -16.95334009        0.7592093022        -114.2906249
      3.115377e+010        1.279806255        -134.0248495         4.390276184         115.0217764        0.2404335412        -17.07249473        0.7581608679        -114.4107588
      3.120376e+010        1.279258291        -134.1399467          4.38462188         114.9303943        0.2401986995        -17.19131147        0.7571136904        -114.5305277
      3.125375e+010        1.278708292        -134.2546804         4.378970198         114.8392419        0.2399631347        -17.30979075        0.7560677833         -114.649932
      3.130374e+010        1.278156286        -134.3690514          4.37332123         114.7483189        0.2397268566        -17.42793302          0.75502316        -114.7689725
      3.135373e+010        1.277602303        -134.4830605         4.367675067         114.6576248        0.2394898746        -17.54573874        0.7539798336        -114.8876497
      3.140372e+010        1.277046371        -134.5967085         4.362031801         114.5671595        0.2392521983        -17.66320837        0.7529378171        -115.0059641
      3.145371e+010        1.276488519        -134.7099963         4.356391521         114.4769224         0.239013837        -17.78034237        0.7518971234        -115.1239165
       3.15037e+010        1.275928776        -134.8229247         4.350754317         114.3869132        0.2387748001        -17.89714122        0.7508577652        -115.2415074
      3.155369e+010        1.275367171        -134.9354945         4.345120277         114.2971317         0.238535097        -18.01360539        0.7498197549        -115.3587375
      3.160368e+010         1.27480373        -135.0477067         4.339489487         114.2075773        0.2382947369        -18.12973536        0.7487831049        -115.4756073
      3.165367e+010        1.274238484        -135.1595621         4.333862034         114.1182498         0.238053729        -18.24553161        0.7477478274        -115.5921175
      3.170366e+010        1.273671458        -135.2710615         4.328238003         114.0291488        0.2378120824        -18.36099463        0.7467139342        -115.7082687
      3.175365e+010        1.273102682        -135.3822057         4.322617479         113.9402738        0.2375698061        -18.47612492        0.7456814374        -115.8240615
      3.180364e+010        1.272532182        -135.4929957         4.317000544         113.8516245        0.2373269092        -18.59092296        0.7446503485        -115.9394967
      3.185363e+010        1.271959986        -135.6034323         4.311387282         113.7632006        0.2370834007        -18.70538926         0.743620679        -116.0545748
      3.190362e+010        1.271386121        -135.7135163         4.305777773         113.6750016        0.2368392893        -18.81952432        0.7425924402        -116.1692965
      3.195361e+010        1.270810613        -135.8232487         4.300172098          113.587027        0.2365945839        -18.93332865        0.7415656434        -116.2836624
       3.20036e+010         1.27023349        -135.9326303         4.294570338         113.4992767        0.2363492933        -19.04680276        0.7405402996        -116.3976733
      3.205359e+010        1.269654778        -136.0416619         4.288972571           113.41175        0.2361034261        -19.15994717        0.7395164196        -116.5113297
      3.210358e+010        1.269074504        -136.1503445         4.283378874         113.3244466         0.235856991        -19.27276239        0.7384940141        -116.6246323
      3.215357e+010        1.268492692        -136.2586789         4.277789326         113.2373661        0.2356099966        -19.38524895        0.7374730936        -116.7375818
      3.220356e+010         1.26790937         -136.366666         4.272204001         113.1505081        0.2353624514        -19.49740737        0.7364536686        -116.8501788
      3.225355e+010        1.267324564        -136.4743067         4.266622976         113.0638721        0.2351143638        -19.60923819        0.7354357492        -116.9624241
      3.230354e+010        1.266738298        -136.5816018         4.261046324         112.9774577        0.2348657422        -19.72074193        0.7344193455        -117.0743183
      3.235353e+010        1.266150598        -136.6885523         4.255474119         112.8912646         0.234616595        -19.83191914        0.7334044675        -117.1858621
      3.240352e+010         1.26556149         -136.795159         4.249906434         112.8052922        0.2343669303        -19.94277034        0.7323911249        -117.2970562
      3.245351e+010        1.264970998        -136.9014228          4.24434334         112.7195401        0.2341167565        -20.05329609        0.7313793273        -117.4079012
       3.25035e+010        1.264379147        -137.0073446         4.238784909         112.6340079        0.2338660817        -20.16349693        0.7303690842        -117.5183979
      3.255349e+010        1.263785963        -137.1129253          4.23323121         112.5486952         0.233614914        -20.27337341        0.7293604049         -117.628547
      3.260348e+010        1.263191468        -137.2181659         4.227682313         112.4636014        0.2333632614        -20.38292608        0.7283532986        -117.7383491
      3.265347e+010        1.262595689         -137.323067         4.222138285         112.3787262        0.2331111319        -20.49215549        0.7273477742         -117.847805
      3.270346e+010        1.261998648        -137.4276298         4.216599195         112.2940691        0.2328585333         -20.6010622        0.7263438407        -117.9569153
      3.275345e+010         1.26140037        -137.5318551         4.211065109         112.2096297        0.2326054736        -20.70964677        0.7253415068        -118.0656809
      3.280344e+010        1.260800878        -137.6357437         4.205536093         112.1254074        0.2323519606        -20.81790977        0.7243407811        -118.1741023
      3.285343e+010        1.260200196        -137.7392966         4.200012212         112.0414019        0.2320980019        -20.92585176        0.7233416719        -118.2821803
      3.290342e+010        1.259598347        -137.8425147          4.19449353         111.9576126        0.2318436053         -21.0334733        0.7223441877        -118.3899156
      3.295341e+010        1.258995355        -137.9453988         4.188980111         111.8740391        0.2315887784        -21.14077497        0.7213483365        -118.4973089
       3.30034e+010        1.258391243          -138.04795         4.183472016         111.7906809        0.2313335288        -21.24775735        0.7203541264         -118.604361
      3.305339e+010        1.257786033         -138.150169         4.177969309         111.7075376        0.2310778638        -21.35442099        0.7193615653        -118.7110726
      3.310338e+010        1.257179747        -138.2520569         4.172472049         111.6246086        0.2308217911         -21.4607665        0.7183706608        -118.8174443
      3.315337e+010         1.25657241        -138.3536144         4.166980297         111.5418935         0.230565318        -21.56679443        0.7173814206         -118.923477
      3.320336e+010        1.255964042        -138.4548425         4.161494112         111.4593919        0.2303084518        -21.67250538        0.7163938523        -119.0291714
      3.325335e+010        1.255354665        -138.5557422         4.156013553         111.3771032        0.2300511997        -21.77789994         0.715407963        -119.1345282
      3.330334e+010        1.254744303        -138.6563143         4.150538678         111.2950269        0.2297935691        -21.88297867          0.71442376        -119.2395481
      3.335333e+010        1.254132976        -138.7565597         4.145069543         111.2131626        0.2295355671        -21.98774218        0.7134412504        -119.3442318
      3.340332e+010        1.253520706        -138.8564794         4.139606206         111.1315097        0.2292772007        -22.09219106        0.7124604411        -119.4485802
      3.345331e+010        1.252907514        -138.9560742         4.134148721         111.0500678        0.2290184771        -22.19632589        0.7114813389         -119.552594
       3.35033e+010        1.252293422        -139.0553451         4.128697143         110.9688364        0.2287594032        -22.30014728        0.7105039506        -119.6562738
      3.355329e+010        1.251678451         -139.154293         4.123251526          110.887815        0.2284999859        -22.40365581        0.7095282826        -119.7596205
      3.360328e+010        1.251062621        -139.2529188         4.117811924         110.8070031        0.2282402322        -22.50685208        0.7085543413        -119.8626348
      3.365327e+010        1.250445954        -139.3512234         4.112378389         110.7264002        0.2279801488         -22.6097367        0.7075821331        -119.9653174
      3.370326e+010        1.249828469        -139.4492078         4.106950972         110.6460057        0.2277197426        -22.71231026        0.7066116642        -120.0676691
      3.375325e+010        1.249210188        -139.5468728         4.101529725         110.5658192        0.2274590202        -22.81457337        0.7056429405        -120.1696907
      3.380324e+010         1.24859113        -139.6442193         4.096114699         110.4858402        0.2271979883        -22.91652664        0.7046759681        -120.2713829
      3.385323e+010        1.247971315        -139.7412483         4.090705942         110.4060681        0.2269366536        -23.01817065        0.7037107527        -120.3727464
      3.390322e+010        1.247350763        -139.8379608         4.085303503         110.3265025        0.2266750225        -23.11950604           0.7027473        -120.4737821
      3.395321e+010        1.246729494        -139.9343575         4.079907431         110.2471429        0.2264131016        -23.22053339        0.7017856156        -120.5744907
       3.40032e+010        1.246107527        -140.0304395         4.074517773         110.1679886        0.2261508973        -23.32125333        0.7008257049        -120.6748729
      3.405319e+010        1.245484882        -140.1262076         4.069134576         110.0890393         0.225888416        -23.42166645        0.6998675732        -120.7749295
      3.410318e+010        1.244861577        -140.2216627         4.063757886         110.0102944        0.2256256641        -23.52177339        0.6989112258        -120.8746613
      3.415317e+010        1.244237633        -140.3168059         4.058387748         109.9317533        0.2253626478        -23.62157474        0.6979566678         -120.974069
      3.420316e+010        1.243613066        -140.4116379         4.053024208         109.8534156        0.2250993734        -23.72107113        0.6970039041        -121.0731535
      3.425315e+010        1.242987897        -140.5061598         4.047667308         109.7752807         0.224835847        -23.82026316        0.6960529396        -121.1719154
      3.430314e+010        1.242362144        -140.6003723         4.042317092         109.6973481        0.2245720748        -23.91915146        0.6951037791        -121.2703556
      3.435313e+010        1.241735825        -140.6942766         4.036973604         109.6196173        0.2243080629        -24.01773664        0.6941564272        -121.3684748
      3.440312e+010        1.241108958        -140.7878733         4.031636884         109.5420878        0.2240438172        -24.11601932        0.6932108885        -121.4662738
      3.445311e+010        1.240481561        -140.8811636         4.026306975          109.464759        0.2237793438        -24.21400012        0.6922671673        -121.5637533
       3.45031e+010        1.239853653        -140.9741482         4.020983917         109.3876304        0.2235146486        -24.31167967         0.691325268        -121.6609142
      3.455309e+010         1.23922525        -141.0668282          4.01566775         109.3107015        0.2232497375        -24.40905857        0.6903851949        -121.7577573
      3.460308e+010         1.23859637        -141.1592044         4.010358514         109.2339717        0.2229846162        -24.50613746        0.6894469519        -121.8542832
      3.465307e+010        1.237967031        -141.2512777         4.005056247         109.1574405        0.2227192906        -24.60291696        0.6885105432        -121.9504927
      3.470306e+010        1.237337249        -141.3430491         3.999760987         109.0811074        0.2224537663        -24.69939769        0.6875759726        -122.0463868
      3.475305e+010        1.236707043        -141.4345194         3.994472772         109.0049719        0.2221880491        -24.79558027        0.6866432439         -122.141966
      3.480304e+010        1.236076428        -141.5256897         3.989191639         108.9290333        0.2219221446        -24.89146533        0.6857123608        -122.2372313
      3.485303e+010        1.235445422        -141.6165607         3.983917624         108.8532912        0.2216560583         -24.9870535        0.6847833269        -122.3321833
      3.490302e+010        1.234814041        -141.7071334         3.978650762         108.7777451        0.2213897957        -25.08234539        0.6838561457         -122.426823
      3.495301e+010        1.234182301        -141.7974088          3.97339109         108.7023944        0.2211233624        -25.17734164        0.6829308205        -122.5211509
        3.5003e+010        1.233550219        -141.8873877         3.968138641         108.6272385        0.2208567638        -25.27204287        0.6820073547         -122.615168
      3.505299e+010        1.232917811         -141.977071         3.962893449          108.552277        0.2205900052        -25.36644971        0.6810857515        -122.7088751
      3.510298e+010        1.232285093        -142.0664597         3.957655547         108.4775092         0.220323092        -25.46056279         0.680166014        -122.8022728
      3.515297e+010        1.231652081        -142.1555547         3.952424968         108.4029347        0.2200560295        -25.55438273        0.6792481451         -122.895362
      3.520296e+010        1.231018789        -142.2443568         3.947201745         108.3285529        0.2197888228        -25.64791016        0.6783321478        -122.9881434
      3.525295e+010        1.230385235        -142.3328671         3.941985909         108.2543632        0.2195214773        -25.74114572        0.6774180249         -123.080618
      3.530294e+010        1.229751433        -142.4210863          3.93677749         108.1803652         0.219253998        -25.83409002        0.6765057791        -123.1727863
      3.535293e+010        1.229117398        -142.5090154         3.931576519         108.1065582          0.21898639         -25.9267437         0.675595413        -123.2646493
      3.540292e+010        1.228483146        -142.5966553         3.926383026         108.0329417        0.2187186584        -26.01910738        0.6746869293        -123.3562077
      3.545291e+010        1.227848691         -142.684007         3.921197041         107.9595153        0.2184508082         -26.1111817        0.6737803303        -123.4474623
       3.55029e+010        1.227214048        -142.7710712         3.916018591         107.8862783        0.2181828444        -26.20296728        0.6728756184        -123.5384139
      3.555289e+010        1.226579233         -142.857849         3.910847706         107.8132302        0.2179147718        -26.29446475        0.6719727959        -123.6290632
      3.560288e+010        1.225944258        -142.9443412         3.905684413         107.7403704        0.2176465953        -26.38567475        0.6710718651        -123.7194111
      3.565287e+010        1.225309139        -143.0305487         3.900528738         107.6676984        0.2173783198        -26.47659789        0.6701728279        -123.8094584
      3.570286e+010        1.224673891        -143.1164724         3.895380709         107.5952137        0.2171099501        -26.56723482        0.6692756864        -123.8992057
      3.575285e+010        1.224038526        -143.2021132         3.890240352         107.5229158        0.2168414908        -26.65758615        0.6683804425         -123.988654
      3.580284e+010        1.223403059        -143.2874721         3.885107692         107.4508039        0.2165729467        -26.74765251        0.6674870982         -124.077804
      3.585283e+010        1.222767504        -143.3725499         3.879982754         107.3788777        0.2163043223        -26.83743454        0.6665956551        -124.1666565
      3.590282e+010        1.222131874        -143.4573475         3.874865563         107.3071366        0.2160356224        -26.92693287         0.665706115        -124.2552122
      3.595281e+010        1.221496183        -143.5418658         3.869756142           107.23558        0.2157668515        -27.01614811        0.6648184794         -124.343472
       3.60028e+010        1.220860444        -143.6261057         3.864654516         107.1642074        0.2154980141         -27.1050809          0.66393275        -124.4314367
      3.605279e+010        1.220224671        -143.7100681         3.859560707         107.0930182        0.2152291146        -27.19373187        0.6630489281         -124.519107
      3.610278e+010        1.219588876        -143.7937539         3.854474738         107.0220119        0.2149601576        -27.28210164        0.6621670151        -124.6064837
      3.615277e+010        1.218953073         -143.877164          3.84939663          106.951188        0.2146911473        -27.37019083        0.6612870123        -124.6935676
      3.620276e+010        1.218317275        -143.9602992         3.844326406         106.8805458        0.2144220883        -27.45800009         0.660408921        -124.7803596
      3.625275e+010        1.217681493        -144.0431605         3.839264087         106.8100849        0.2141529846        -27.54553002        0.6595327423        -124.8668603
      3.630274e+010        1.217045742        -144.1257487         3.834209692         106.7398046        0.2138838407        -27.63278126        0.6586584772        -124.9530705
      3.635273e+010        1.216410032        -144.2080648         3.829163243         106.6697045        0.2136146607        -27.71975444        0.6577861268        -125.0389912
      3.640272e+010        1.215774377        -144.2901095         3.824124758          106.599784        0.2133454489        -27.80645017        0.6569156919        -125.1246229
      3.645271e+010        1.215138789        -144.3718839         3.819094258         106.5300426        0.2130762094        -27.89286908        0.6560471735        -125.2099666
       3.65027e+010         1.21450328        -144.4533887          3.81407176         106.4604797        0.2128069463         -27.9790118        0.6551805722         -125.295023
      3.655269e+010        1.213867861        -144.5346249         3.809057284         106.3910947        0.2125376636        -28.06487894        0.6543158889        -125.3797929
      3.660268e+010        1.213232545        -144.6155933         3.804050847         106.3218871        0.2122683654        -28.15047113        0.6534531242         -125.464277
      3.665267e+010        1.212597343        -144.6962948         3.799052466         106.2528564        0.2119990556        -28.23578899        0.6525922786        -125.5484762
      3.670266e+010        1.211962267        -144.7767302         3.794062158         106.1840021        0.2117297383        -28.32083315        0.6517333526        -125.6323912
      3.675265e+010        1.211327328        -144.8569006         3.789079941         106.1153235        0.2114604174        -28.40560421        0.6508763467        -125.7160229
      3.680264e+010        1.210692538        -144.9368066         3.784105829         106.0468201        0.2111910966        -28.49010282        0.6500212612        -125.7993719
      3.685263e+010        1.210057908        -145.0164493          3.77913984         105.9784914        0.2109217798        -28.57432957        0.6491680965        -125.8824391
      3.690262e+010        1.209423448        -145.0958294         3.774181987         105.9103368        0.2106524709        -28.65828509        0.6483168528        -125.9652253
      3.695261e+010         1.20878917        -145.1749478         3.769232287         105.8423559        0.2103831736           -28.74197        0.6474675303        -126.0477312
       3.70026e+010        1.208155085        -145.2538055         3.764290753          105.774548        0.2101138916        -28.82538491         0.646620129        -126.1299577
      3.705259e+010        1.207521203        -145.3324032         3.759357399         105.7069126        0.2098446286        -28.90853044        0.6457746491        -126.2119054
      3.710258e+010        1.206887535        -145.4107418         3.754432239         105.6394491        0.2095753882        -28.99140721        0.6449310906        -126.2935752
      3.715257e+010        1.206254092        -145.4888222         3.749515287         105.5721571        0.2093061741        -29.07401583        0.6440894533        -126.3749678
      3.720256e+010        1.205620883        -145.5666453         3.744606555         105.5050359        0.2090369898        -29.15635691        0.6432497371        -126.4560841
      3.725255e+010         1.20498792        -145.6442118         3.739706056         105.4380851        0.2087678388        -29.23843106        0.6424119418        -126.5369248
      3.730254e+010        1.204355212        -145.7215227         3.734813801         105.3713041        0.2084987247         -29.3202389        0.6415760673        -126.6174906
      3.735253e+010        1.203722769        -145.7985788         3.729929803         105.3046923         0.208229651        -29.40178104        0.6407421132        -126.6977824
      3.740252e+010        1.203090601         -145.875381         3.725054072         105.2382492         0.207960621        -29.48305809         0.639910079        -126.7778009
      3.745251e+010        1.202458718        -145.9519301         3.720186621         105.1719743        0.2076916381        -29.56407065        0.6390799645        -126.8575469
       3.75025e+010         1.20182713         -146.028227         3.715327458          105.105867        0.2074227058        -29.64481934        0.6382517691        -126.9370212
      3.755249e+010        1.201195847        -146.1042725         3.710476595         105.0399269        0.2071538273        -29.72530475        0.6374254923        -127.0162245
      3.760248e+010        1.200564877        -146.1800674         3.705634042         104.9741532         0.206885006        -29.80552751        0.6366011336        -127.0951576
      3.765247e+010         1.19993423        -146.2556126         3.700799807         104.9085456         0.206616245         -29.8854882        0.6357786921        -127.1738212
      3.770246e+010        1.199303915         -146.330909           3.6959739         104.8431035        0.2063475477        -29.96518744        0.6349581674        -127.2522162
      3.775245e+010        1.198673943        -146.4059573          3.69115633         104.7778263        0.2060789172        -30.04462582        0.6341395587        -127.3303433
      3.780244e+010         1.19804432        -146.4807585         3.686347105         104.7127135        0.2058103567        -30.12380396         0.633322865        -127.4082033
      3.785243e+010        1.197415058        -146.5553133         3.681546234         104.6477646        0.2055418692        -30.20272244        0.6325080857        -127.4857969
      3.790242e+010        1.196786164        -146.6296226         3.676753723          104.582979         0.205273458        -30.28138187        0.6316952198        -127.5631249
      3.795241e+010        1.196157647        -146.7036872         3.671969581         104.5183563         0.205005126        -30.35978284        0.6308842663        -127.6401881
       3.80024e+010        1.195529515         -146.777508         3.667193814         104.4538958        0.2047368763        -30.43792596        0.6300752243        -127.7169871
      3.805239e+010        1.194901779        -146.8510857          3.66242643          104.389597        0.2044687119        -30.51581181        0.6292680927        -127.7935229
      3.810238e+010        1.194274444        -146.9244213         3.657667435         104.3254595        0.2042006357          -30.593441        0.6284628704        -127.8697961
      3.815237e+010        1.193647521        -146.9975155         3.652916834         104.2614826        0.2039326507        -30.67081412        0.6276595563        -127.9458075
      3.820236e+010        1.193021018        -147.0703691         3.648174635         104.1976659        0.2036647598        -30.74793175        0.6268581492        -128.0215578
      3.825235e+010        1.192394942        -147.1429831         3.643440841         104.1340088        0.2033969658        -30.82479449        0.6260586479        -128.0970479
      3.830234e+010        1.191769301        -147.2153581         3.638715459         104.0705108        0.2031292716        -30.90140293        0.6252610511        -128.1722784
      3.835233e+010        1.191144104         -147.287495         3.633998493         104.0071713        0.2028616801        -30.97775766        0.6244653574        -128.2472502
      3.840232e+010        1.190519358        -147.3593947         3.629289948           103.94399        0.2025941939        -31.05385926        0.6236715656        -128.3219639
      3.845231e+010        1.189895071        -147.4310579         3.624589827         103.8809661        0.2023268158        -31.12970832        0.6228796742        -128.3964203
       3.85023e+010        1.189271252        -147.5024854         3.619898136         103.8180992        0.2020595486        -31.20530542        0.6220896817        -128.4706203
      3.855229e+010        1.188647906        -147.5736781         3.615214878         103.7553888         0.201792395        -31.28065115        0.6213015867        -128.5445644
      3.860228e+010        1.188025042        -147.6446368         3.610540056         103.6928343        0.2015253576        -31.35574609        0.6205153877        -128.6182535
      3.865227e+010        1.187402667        -147.7153622         3.605873673         103.6304352         0.201258439        -31.43059082        0.6197310829        -128.6916883
      3.870226e+010        1.186780789        -147.7858552         3.601215732         103.5681911        0.2009916418        -31.50518592         0.618948671        -128.7648696
      3.875225e+010        1.186159415        -147.8561166         3.596566236         103.5061013        0.2007249687        -31.57953196        0.6181681501        -128.8377981
      3.880224e+010        1.185538551        -147.9261472         3.591925187         103.4441654        0.2004584221        -31.65362952        0.6173895186        -128.9104745
      3.885223e+010        1.184918205        -147.9959478         3.587292587         103.3823829        0.2001920047        -31.72747918        0.6166127747        -128.9828996
      3.890222e+010        1.184298383        -148.0655191         3.582668437         103.3207532        0.1999257188        -31.80108151        0.6158379168        -129.0550742
      3.895221e+010        1.183679094        -148.1348619          3.57805274         103.2592758        0.1996595669        -31.87443708        0.6150649429        -129.1269989
       3.90022e+010        1.183060342        -148.2039772         3.573445496         103.1979502        0.1993935515        -31.94754646        0.6142938512        -129.1986746
      3.905219e+010        1.182442136        -148.2728655         3.568846706         103.1367759        0.1991276751        -32.02041023          0.61352464        -129.2701018
      3.910218e+010        1.181824481        -148.3415278         3.564256371         103.0757523        0.1988619398        -32.09302894        0.6127573071        -129.3412815
      3.915217e+010        1.181207384        -148.4099648         3.559674492         103.0148791        0.1985963483        -32.16540317        0.6119918507        -129.4122142
      3.920216e+010        1.180590852        -148.4781773         3.555101068         102.9541555        0.1983309026        -32.23753348        0.6112282688        -129.4829008
      3.925215e+010        1.179974891        -148.5461661           3.5505361         102.8935813        0.1980656053        -32.30942044        0.6104665594         -129.553342
      3.930214e+010        1.179359506        -148.6139319         3.545979587         102.8331557        0.1978004584         -32.3810646        0.6097067204        -129.6235385
      3.935213e+010        1.178744705        -148.6814755         3.541431528         102.7728784        0.1975354644        -32.45246652        0.6089487497         -129.693491
      3.940212e+010        1.178130493        -148.7487978         3.536891924         102.7127488        0.1972706253        -32.52362677        0.6081926453        -129.7632002
      3.945211e+010        1.177516877        -148.8158994         3.532360773         102.6527665        0.1970059435         -32.5945459        0.6074384049         -129.832667
       3.95021e+010        1.176903862        -148.8827811         3.527838073         102.5929308         0.196741421        -32.66522447        0.6066860263        -129.9018919
      3.955209e+010        1.176291454        -148.9494438         3.523323824         102.5332414        0.1964770601        -32.73566303        0.6059355074        -129.9708758
      3.960208e+010        1.175679659        -149.0158882         3.518818023         102.4736977        0.1962128629        -32.80586213        0.6051868459        -130.0396193
      3.965207e+010        1.175068482        -149.0821149         3.514320668         102.4142991        0.1959488314        -32.87582233        0.6044400394        -130.1081232
      3.970206e+010         1.17445793        -149.1481249         3.509831758         102.3550453        0.1956849677        -32.94554417        0.6036950858        -130.1763882
      3.975205e+010        1.173848007        -149.2139189          3.50535129         102.2959357        0.1954212739        -33.01502821        0.6029519827         -130.244415
      3.980204e+010         1.17323872        -149.2794976         3.500879262         102.2369698        0.1951577521        -33.08427498        0.6022107277        -130.3122043
      3.985203e+010        1.172630073        -149.3448617          3.49641567         102.1781472        0.1948944041        -33.15328504        0.6014713184        -130.3797568
      3.990202e+010        1.172022072        -149.4100121         3.491960512         102.1194672        0.1946312321        -33.22205892        0.6007337523        -130.4470733
      3.995201e+010        1.171414722        -149.4749494         3.487513785         102.0609295        0.1943682379        -33.29059718        0.5999980271        -130.5141544
        4.0002e+010        1.170808029        -149.5396745         3.483075484         102.0025336        0.1941054235        -33.35890034        0.5992641403        -130.5810009
      4.005199e+010        1.170201997         -149.604188         3.478645607         101.9442789        0.1938427908        -33.42696895        0.5985320893        -130.6476135
      4.010198e+010        1.169596631        -149.6684907          3.47422415         101.8861649        0.1935803417        -33.49480354        0.5978018716        -130.7139928
      4.015197e+010        1.168991937        -149.7325834         3.469811109         101.8281912         0.193318078        -33.56240465        0.5970734847        -130.7801397
      4.020196e+010        1.168387919        -149.7964668         3.465406478         101.7703573        0.1930560016        -33.62977281         0.596346926        -130.8460547
      4.025195e+010        1.167784582        -149.8601417         3.461010255         101.7126627        0.1927941144        -33.69690856        0.5956221928        -130.9117386
      4.030194e+010        1.167181931        -149.9236086         3.456622435         101.6551069         0.192532418        -33.76381242        0.5948992826        -130.9771921
      4.035193e+010         1.16657997        -149.9868685         3.452243012         101.5976894        0.1922709144        -33.83048492        0.5941781927        -131.0424158
      4.040192e+010        1.165978704        -150.0499221         3.447871982         101.5404098        0.1920096052        -33.89692659        0.5934589203        -131.1074106
      4.045191e+010        1.165378138        -150.1127699         3.443509339         101.4832676        0.1917484922        -33.96313796        0.5927414629         -131.172177
       4.05019e+010        1.164778277        -150.1754129         3.439155079         101.4262622        0.1914875771        -34.02911954        0.5920258177        -131.2367158
      4.055189e+010        1.164179123        -150.2378517         3.434809196         101.3693932        0.1912268616        -34.09487187        0.5913119819        -131.3010277
      4.060188e+010        1.163580683         -150.300087         3.430471684         101.3126602        0.1909663474        -34.16039545        0.5905999527        -131.3651133
      4.065187e+010        1.162982959        -150.3621196         3.426142537         101.2560626         0.190706036        -34.22569082        0.5898897274        -131.4289733
      4.070186e+010        1.162385957        -150.4239501          3.42182175            101.1996        0.1904459292        -34.29075848        0.5891813032        -131.4926085
      4.075185e+010         1.16178968        -150.4855793         3.417509316         101.1432719        0.1901860286        -34.35559895        0.5884746772        -131.5560195
      4.080184e+010        1.161194133        -150.5470079         3.413205229         101.0870779        0.1899263357        -34.42021275        0.5877698466         -131.619207
      4.085183e+010         1.16059932        -150.6082367         3.408909482         101.0310174        0.1896668521        -34.48460038        0.5870668085        -131.6821717
      4.090182e+010        1.160005244        -150.6692662         3.404622069           100.97509        0.1894075794        -34.54876236          0.58636556        -131.7449142
      4.095181e+010        1.159411909        -150.7300973         3.400342983         100.9192952        0.1891485191        -34.61269919        0.5856660981        -131.8074353
       4.10018e+010         1.15881932        -150.7907306         3.396072217         100.8636325        0.1888896727        -34.67641138        0.5849684201        -131.8697356
      4.105179e+010        1.158227479        -150.8511668         3.391809763         100.8081016        0.1886310416        -34.73989944        0.5842725228        -131.9318159
      4.110178e+010        1.157636392        -150.9114067         3.387555616         100.7527019        0.1883726275        -34.80316388        0.5835784034        -131.9936766
      4.115177e+010         1.15704606        -150.9714509         3.383309766         100.6974329        0.1881144317        -34.86620518        0.5828860588        -132.0553187
      4.120176e+010        1.156456489        -151.0313001         3.379072207         100.6422943        0.1878564556        -34.92902385        0.5821954861        -132.1167426
      4.125175e+010        1.155867681        -151.0909551         3.374842931         100.5872855        0.1875987008        -34.99162039        0.5815066822        -132.1779491
      4.130174e+010        1.155279641        -151.1504164          3.37062193          100.532406        0.1873411685         -35.0539953        0.5808196441        -132.2389389
      4.135173e+010         1.15469237        -151.2096849         3.366409197         100.4776555        0.1870838601        -35.11614906        0.5801343688        -132.2997126
      4.140172e+010        1.154105874        -151.2687611         3.362204722         100.4230335        0.1868267771        -35.17808218        0.5794508531        -132.3602709
      4.145171e+010        1.153520154        -151.3276458         3.358008498         100.3685395        0.1865699208        -35.23979515        0.5787690939        -132.4206145
       4.15017e+010        1.152935215        -151.3863397         3.353820516          100.314173        0.1863132924        -35.30128844        0.5780890883        -132.4807439
      4.155169e+010         1.15235106        -151.4448434         3.349640767         100.2599336        0.1860568933        -35.36256256         0.577410833        -132.5406599
      4.160168e+010        1.151767691        -151.5031576         3.345469244         100.2058209        0.1858007249        -35.42361799        0.5767343249        -132.6003632
      4.165167e+010        1.151185112        -151.5612831         3.341305938         100.1518344        0.1855447883         -35.4844552        0.5760595609        -132.6598543
      4.170166e+010        1.150603326        -151.6192203         3.337150838         100.0979736        0.1852890849        -35.54507469        0.5753865378         -132.719134
      4.175165e+010        1.150022336        -151.6769701         3.333003938         100.0442382        0.1850336158        -35.60547694        0.5747152524        -132.7782029
      4.180164e+010        1.149442145        -151.7345331         3.328865226         99.99062762        0.1847783823        -35.66566242        0.5740457016        -132.8370616
      4.185163e+010        1.148862755          -151.79191         3.324734694         99.93714145        0.1845233856        -35.72563161        0.5733778822        -132.8957108
      4.190162e+010         1.14828417        -151.8491014         3.320612333         99.88377926        0.1842686269        -35.78538498        0.5727117908        -132.9541512
      4.195161e+010        1.147706392        -151.9061081         3.316498133          99.8305406        0.1840141074        -35.84492301        0.5720474244        -133.0123833
       4.20016e+010        1.147129424        -151.9629305         3.312392084         99.77742503        0.1837598282        -35.90424618        0.5713847796        -133.0704079
      4.205159e+010        1.146553268        -152.0195695         3.308294176         99.72443211        0.1835057904        -35.96335495        0.5707238533        -133.1282256
      4.210158e+010        1.145977928        -152.0760257         3.304204401         99.67156141        0.1832519953        -36.02224978        0.5700646421         -133.185837
      4.215157e+010        1.145403406        -152.1322997         3.300122747         99.61881248        0.1829984439        -36.08093116        0.5694071427        -133.2432427
      4.220156e+010        1.144829705        -152.1883922         3.296049206          99.5661849        0.1827451373        -36.13939953         0.568751352        -133.3004435
      4.225155e+010        1.144256826        -152.2443038         3.291983765         99.51367823        0.1824920766        -36.19765538        0.5680972665        -133.3574398
      4.230154e+010        1.143684773        -152.3000352         3.287926416         99.46129203        0.1822392628        -36.25569914        0.5674448829        -133.4142325
      4.235153e+010        1.143113547         -152.355587         3.283877148         99.40902588         0.181986697         -36.3135313        0.5667941981        -133.4708221
      4.240152e+010        1.142543151        -152.4109598         3.279835951         99.35687935        0.1817343803        -36.37115229        0.5661452085        -133.5272092
      4.245151e+010        1.141973588        -152.4661544         3.275802813           99.304852        0.1814823137        -36.42856259        0.5654979109        -133.5833944
       4.25015e+010         1.14140486        -152.5211714         3.271777724         99.25294342        0.1812304981        -36.48576264         0.564852302        -133.6393785
      4.255149e+010        1.140836968        -152.5760113         3.267760674         99.20115317        0.1809789345         -36.5427529        0.5642083783        -133.6951619
      4.260148e+010        1.140269915        -152.6306748         3.263751651         99.14948083         0.180727624        -36.59953382        0.5635661365        -133.7507455
      4.265147e+010        1.139703704        -152.6851626         3.259750645         99.09792597        0.1804765675        -36.65610584        0.5629255733        -133.8061297
      4.270146e+010        1.139138336        -152.7394753         3.255757644         99.04648819         0.180225766        -36.71246942        0.5622866852        -133.8613151
      4.275145e+010        1.138573813        -152.7936134         3.251772638         98.99516705        0.1799752203        -36.76862499        0.5616494688        -133.9163025
      4.280144e+010        1.138010137        -152.8475778         3.247795615         98.94396214        0.1797249314        -36.82457301        0.5610139207        -133.9710925
      4.285143e+010         1.13744731        -152.9013688         3.243826563         98.89287303        0.1794749003        -36.88031392        0.5603800376        -134.0256855
      4.290142e+010        1.136885335        -152.9549873         3.239865472         98.84189932        0.1792251277        -36.93584815         0.559747816        -134.0800824
      4.295141e+010        1.136324212        -153.0084337          3.23591233         98.79104059        0.1789756146        -36.99117614        0.5591172525        -134.1342836
       4.30014e+010        1.135763945        -153.0617088         3.231967125         98.74029643        0.1787263619        -37.04629834        0.5584883436        -134.1882898
      4.305139e+010        1.135204534        -153.1148131         3.228029845         98.68966641        0.1784773704        -37.10121517        0.5578610859        -134.2421016
      4.310138e+010        1.134645981        -153.1677473          3.22410048         98.63915014         0.178228641        -37.15592707         0.557235476        -134.2957196
      4.315137e+010        1.134088288        -153.2205119         3.220179016         98.58874721        0.1779801744        -37.21043447        0.5566115103        -134.3491444
      4.320136e+010        1.133531457        -153.2731076         3.216265443         98.53845719        0.1777319715         -37.2647378        0.5559891855        -134.4023766
      4.325135e+010        1.132975489        -153.3255349         3.212359748          98.4882797        0.1774840331        -37.31883749        0.5553684981        -134.4554168
      4.330134e+010        1.132420386        -153.3777946          3.20846192         98.43821432          0.17723636        -37.37273396        0.5547494446        -134.5082657
      4.335133e+010        1.131866149        -153.4298871         3.204571945         98.38826065         0.176988953        -37.42642765        0.5541320215        -134.5609238
      4.340132e+010        1.131312781        -153.4818131         3.200689813         98.33841829        0.1767418128        -37.47991896        0.5535162254        -134.6133917
      4.345131e+010        1.130760282        -153.5335731          3.19681551         98.28868683        0.1764949402        -37.53320833        0.5529020527          -134.66567
       4.35013e+010        1.130208653        -153.5851679         3.192949024         98.23906587        0.1762483359        -37.58629616        0.5522894999        -134.7177593
      4.355129e+010        1.129657897        -153.6365979         3.189090344         98.18955503        0.1760020006        -37.63918289        0.5516785636        -134.7696603
      4.360128e+010        1.129108015        -153.6878638         3.185239456         98.14015389        0.1757559352        -37.69186892        0.5510692403        -134.8213734
      4.365127e+010        1.128559007        -153.7389662         3.181396348         98.09086207        0.1755101402        -37.74435467        0.5504615264        -134.8728993
      4.370126e+010        1.128010876        -153.7899056         3.177561007         98.04167917        0.1752646164        -37.79664055        0.5498554184        -134.9242386
      4.375125e+010        1.127463622        -153.8406826         3.173733421         97.99260479        0.1750193644        -37.84872698        0.5492509128        -134.9753918
      4.380124e+010        1.126917247        -153.8912978         3.169913578         97.94363855        0.1747743849        -37.90061435        0.5486480061        -135.0263596
      4.385123e+010        1.126371752        -153.9417519         3.166101463         97.89478005        0.1745296787        -37.95230308        0.5480466948        -135.0771425
      4.390122e+010        1.125827138        -153.9920453         3.162297066         97.84602891        0.1742852463        -38.00379357        0.5474469753        -135.1277412
      4.395121e+010        1.125283406        -154.0421786         3.158500372         97.79738474        0.1740410883        -38.05508623        0.5468488441        -135.1781561
       4.40012e+010        1.124740557        -154.0921525         3.154711368         97.74884714        0.1737972055        -38.10618145        0.5462522976        -135.2283879
      4.405119e+010        1.124198593        -154.1419675         3.150930043         97.70041574        0.1735535984        -38.15707964        0.5456573324        -135.2784371
      4.410118e+010        1.123657513        -154.1916242         3.147156382         97.65209016        0.1733102676         -38.2077812        0.5450639449        -135.3283043
      4.415117e+010         1.12311732        -154.2411231         3.143390372            97.60387        0.1730672137        -38.25828652        0.5444721315        -135.3779902
      4.420116e+010        1.122578015        -154.2904648         3.139632002         97.55575489        0.1728244374          -38.308596        0.5438818887        -135.4274952
      4.425115e+010        1.122039597        -154.3396499         3.135881256         97.50774445        0.1725819391        -38.35871003        0.5432932129        -135.4768199
      4.430114e+010        1.121502069        -154.3886789         3.132138123          97.4598383        0.1723397194          -38.408629        0.5427061007         -135.525965
      4.435113e+010         1.12096543        -154.4375524         3.128402588         97.41203607         0.172097779         -38.4583533        0.5421205483        -135.5749309
      4.440112e+010        1.120429683         -154.486271         3.124674639         97.36433737        0.1718561183        -38.50788332        0.5415365524        -135.6237182
      4.445111e+010        1.119894826        -154.5348352         3.120954262         97.31674183        0.1716147379        -38.55721944        0.5409541092        -135.6723276
       4.45011e+010        1.119360863        -154.5832456         3.117241443         97.26924909        0.1713736382        -38.60636206        0.5403732154        -135.7207595
      4.455109e+010        1.118827792        -154.6315027          3.11353617         97.22185876        0.1711328199        -38.65531155        0.5397938672        -135.7690145
      4.460108e+010        1.118295615        -154.6796071         3.109838428         97.17457048        0.1708922834        -38.70406829        0.5392160612        -135.8170932
      4.465107e+010        1.117764332        -154.7275594         3.106148204         97.12738387        0.1706520293        -38.75263267        0.5386397937        -135.8649962
      4.470106e+010        1.117233945          -154.77536         3.102465485         97.08029858        0.1704120579        -38.80100506        0.5380650613        -135.9127239
      4.475105e+010        1.116704453        -154.8230095         3.098790257         97.03331423        0.1701723698        -38.84918583        0.5374918603         -135.960277
      4.480104e+010        1.116175857        -154.8705085         3.095122506         96.98643046        0.1699329655        -38.89717537        0.5369201872        -136.0076559
      4.485103e+010        1.115648159        -154.9178574         3.091462219          96.9396469        0.1696938454        -38.94497404        0.5363500384        -136.0548614
      4.490102e+010        1.115121358         -154.965057         3.087809381          96.8929632        0.1694550099        -38.99258222        0.5357814104        -136.1018938
      4.495101e+010        1.114595455        -155.0121076         3.084163979         96.84637898        0.1692164595        -39.04000027        0.5352142995        -136.1487537
        4.5001e+010         1.11407045        -155.0590098         3.080525999          96.7998939        0.1689781947        -39.08722856        0.5346487023        -136.1954418
      4.505099e+010        1.113546344        -155.1057642         3.076895428         96.75350759        0.1687402158        -39.13426746        0.5340846151        -136.2419585
      4.510098e+010        1.113023138        -155.1523713         3.073272251         96.70721969        0.1685025232        -39.18111733        0.5335220345        -136.2883043
      4.515097e+010        1.112500831        -155.1988316         3.069656455         96.66102985        0.1682651175        -39.22777854        0.5329609567        -136.3344799
      4.520096e+010        1.111979424        -155.2451456         3.066048025         96.61493771        0.1680279989        -39.27425144        0.5324013783        -136.3804857
      4.525095e+010        1.111458918        -155.2913139         3.062446948         96.56894292        0.1677911678        -39.32053639        0.5318432956        -136.4263224
      4.530094e+010        1.110939313         -155.337337         3.058853209         96.52304513        0.1675546247        -39.36663376        0.5312867052        -136.4719903
      4.535093e+010        1.110420609        -155.3832155         3.055266795         96.47724398        0.1673183699         -39.4125439        0.5307316035        -136.5174901
      4.540092e+010        1.109902806        -155.4289497         3.051687692         96.43153913        0.1670824038        -39.45826715        0.5301779868        -136.5628223
      4.545091e+010        1.109385905        -155.4745403         3.048115885         96.38593022        0.1668467267        -39.50380389        0.5296258517        -136.6079875
       4.55009e+010        1.108869906        -155.5199878          3.04455136         96.34041692         0.166611339        -39.54915444        0.5290751945        -136.6529861
      4.555089e+010        1.108354808        -155.5652926         3.040994104         96.29499887         0.166376241        -39.59431917        0.5285260117        -136.6978187
      4.560088e+010        1.107840614        -155.6104554         3.037444101         96.24967573        0.1661414331        -39.63929842        0.5279782998        -136.7424857
      4.565087e+010        1.107327321        -155.6554765         3.033901339         96.20444716        0.1659069155        -39.68409255        0.5274320552        -136.7869879
      4.570086e+010        1.106814932        -155.7003566         3.030365801         96.15931281        0.1656726886        -39.72870188        0.5268872744        -136.8313256
      4.575085e+010        1.106303445        -155.7450961         3.026837476         96.11427235        0.1654387527        -39.77312676        0.5263439537        -136.8754993
      4.580084e+010         1.10579286        -155.7896955         3.023316347         96.06932542        0.1652051081        -39.81736755        0.5258020896        -136.9195097
      4.585083e+010        1.105283179        -155.8341554         3.019802402         96.02447171        0.1649717552        -39.86142456        0.5252616786        -136.9633572
      4.590082e+010        1.104774401        -155.8784762         3.016295624         95.97971086        0.1647386941        -39.90529815        0.5247227172        -137.0070423
      4.595081e+010        1.104266525        -155.9226584         3.012796002         95.93504254        0.1645059251        -39.94898865        0.5241852018        -137.0505656
       4.60008e+010        1.103759553        -155.9667026         3.009303519         95.89046642        0.1642734486        -39.99249639        0.5236491288        -137.0939275
      4.605079e+010        1.103253484        -156.0106091         3.005818162         95.84598216        0.1640412648        -40.03582171        0.5231144946        -137.1371286
      4.610078e+010        1.102748317        -156.0543786         3.002339916         95.80158944         0.163809374        -40.07896493        0.5225812959        -137.1801695
      4.615077e+010        1.102244054        -156.0980116         2.998868766         95.75728791        0.1635777764        -40.12192639         0.522049529        -137.2230505
      4.620076e+010        1.101740693        -156.1415084           2.9954047         95.71307726        0.1633464722        -40.16470642        0.5215191904        -137.2657722
      4.625075e+010        1.101238235        -156.1848696         2.991947701         95.66895714        0.1631154618        -40.20730533        0.5209902765        -137.3083351
      4.630074e+010         1.10073668        -156.2280957         2.988497756         95.62492725        0.1628847452        -40.24972347        0.5204627839        -137.3507398
      4.635073e+010        1.100236027        -156.2711871         2.985054851         95.58098724        0.1626543229        -40.29196114        0.5199367089        -137.3929866
      4.640072e+010        1.099736277        -156.3141444          2.98161897          95.5371368        0.1624241949        -40.33401867        0.5194120482        -137.4350762
      4.645071e+010        1.099237428         -156.356968         2.978190099         95.49337559        0.1621943614        -40.37589638        0.5188887981         -137.477009
       4.65007e+010        1.098739482        -156.3996584         2.974768224         95.44970331        0.1619648228        -40.41759459        0.5183669552        -137.5187855
      4.655069e+010        1.098242437        -156.4422161         2.971353331         95.40611962        0.1617355792        -40.45911362        0.5178465159        -137.5604063
      4.660068e+010        1.097746294        -156.4846416         2.967945404         95.36262421        0.1615066307        -40.50045377        0.5173274767        -137.6018717
      4.665067e+010        1.097251052        -156.5269353          2.96454443         95.31921675        0.1612779776        -40.54161537        0.5168098342        -137.6431824
      4.670066e+010        1.096756712        -156.5690977         2.961150393         95.27589694        0.1610496201        -40.58259873        0.5162935847        -137.6843388
      4.675065e+010        1.096263272        -156.6111292          2.95776328         95.23266445        0.1608215583        -40.62340415        0.5157787249        -137.7253413
      4.680064e+010        1.095770732        -156.6530304         2.954383076         95.18951897        0.1605937924        -40.66403195        0.5152652512        -137.7661905
      4.685063e+010        1.095279093        -156.6948018         2.951009766         95.14646019        0.1603663225        -40.70448244        0.5147531601        -137.8068869
      4.690062e+010        1.094788353        -156.7364437         2.947643336         95.10348778        0.1601391489        -40.74475591        0.5142424481         -137.847431
      4.695061e+010        1.094298513        -156.7779566         2.944283771         95.06060145        0.1599122716        -40.78485268        0.5137331118        -137.8878232
       4.70006e+010        1.093809572        -156.8193411         2.940931057         95.01780088        0.1596856909        -40.82477304        0.5132251477         -137.928064
      4.705059e+010         1.09332153        -156.8605975         2.937585179         94.97508575        0.1594594068         -40.8645173        0.5127185523        -137.9681539
      4.710058e+010        1.092834386        -156.9017263         2.934246122         94.93245577        0.1592334194        -40.90408575        0.5122133221        -138.0080934
      4.715057e+010         1.09234814         -156.942728         2.930913872         94.88991063         0.159007729         -40.9434787        0.5117094536         -138.047883
      4.720056e+010        1.091862791         -156.983603         2.927588415         94.84745001        0.1587823357        -40.98269644        0.5112069435        -138.0875231
      4.725055e+010         1.09137834        -157.0243518         2.924269736         94.80507362        0.1585572395        -41.02173927        0.5107057882        -138.1270142
      4.730054e+010        1.090894784        -157.0649749         2.920957819         94.76278115        0.1583324405        -41.06060748        0.5102059842        -138.1663568
      4.735053e+010        1.090412125        -157.1054726         2.917652652          94.7205723        0.1581079389        -41.09930135        0.5097075282        -138.2055514
      4.740052e+010        1.089930362        -157.1458455         2.914354219         94.67844677        0.1578837348        -41.13782119        0.5092104166        -138.2445984
      4.745051e+010        1.089449493        -157.1860939         2.911062505         94.63640426        0.1576598283        -41.17616729        0.5087146461        -138.2834983
       4.75005e+010         1.08896952        -157.2262184         2.907777497         94.59444447        0.1574362195        -41.21433992        0.5082202132        -138.3222516
      4.755049e+010         1.08849044        -157.2662193         2.904499178         94.55256709        0.1572129084        -41.25233937        0.5077271145        -138.3608588
      4.760048e+010        1.088012253        -157.3060972         2.901227536         94.51077185        0.1569898951        -41.29016593        0.5072353465        -138.3993202
      4.765047e+010         1.08753496        -157.3458523         2.897962555         94.46905843        0.1567671798        -41.32781988        0.5067449058        -138.4376364
      4.770046e+010        1.087058559        -157.3854853         2.894704221         94.42742654        0.1565447624        -41.36530151         0.506255789        -138.4758079
      4.775045e+010        1.086583049        -157.4249965         2.891452519          94.3858759        0.1563226431        -41.40261109        0.5057679927         -138.513835
      4.780044e+010        1.086108431        -157.4643864         2.888207434         94.34440621        0.1561008219         -41.4397489        0.5052815134        -138.5517183
      4.785043e+010        1.085634703        -157.5036553         2.884968953         94.30301718        0.1558792989        -41.47671521        0.5047963479        -138.5894583
      4.790042e+010        1.085161865        -157.5428037          2.88173706         94.26170852        0.1556580741        -41.51351031        0.5043124926        -138.6270553
      4.795041e+010        1.084689916        -157.5818321         2.878511741         94.22047994        0.1554371475        -41.55013447        0.5038299442        -138.6645098
       4.80004e+010        1.084218855        -157.6207409         2.875292981         94.17933115        0.1552165193        -41.58658796        0.5033486993        -138.7018223
      4.805039e+010        1.083748683        -157.6595305         2.872080767         94.13826187        0.1549961895        -41.62287105        0.5028687545        -138.7389932
      4.810038e+010        1.083279398        -157.6982013         2.868875082         94.09727181         0.154776158          -41.658984        0.5023901064        -138.7760231
      4.815037e+010        1.082810999        -157.7367538         2.865675914         94.05636068         0.154556425         -41.6949271        0.5019127517        -138.8129122
      4.820036e+010        1.082343486        -157.7751883         2.862483246         94.01552821        0.1543369904         -41.7307006         0.501436687        -138.8496612
      4.825035e+010        1.081876858        -157.8135053         2.859297066         93.97477411        0.1541178543        -41.76630477        0.5009619089        -138.8862704
      4.830034e+010        1.081411114        -157.8517053         2.856117358          93.9340981        0.1538990167        -41.80173987        0.5004884141        -138.9227403
      4.835033e+010        1.080946254        -157.8897885         2.852944107         93.89349991        0.1536804776        -41.83700617        0.5000161992        -138.9590713
      4.840032e+010        1.080482276        -157.9277555           2.8497773         93.85297924         0.153462237        -41.87210392         0.499545261        -138.9952638
      4.845031e+010        1.080019181        -157.9656067         2.846616922         93.81253583        0.1532442949        -41.90703339        0.4990755959        -139.0313184
       4.85003e+010        1.079556967        -158.0033424         2.843462958         93.77216939        0.1530266514        -41.94179484        0.4986072008        -139.0672354
      4.855029e+010        1.079095633        -158.0409631         2.840315393         93.73187966        0.1528093064        -41.97638851        0.4981400722        -139.1030153
      4.860028e+010        1.078635179        -158.0784692         2.837174215         93.69166635        0.1525922599        -42.01081468         0.497674207        -139.1386586
      4.865027e+010        1.078175604        -158.1158611         2.834039407          93.6515292        0.1523755119        -42.04507357        0.4972096016        -139.1741655
      4.870026e+010        1.077716907        -158.1531392         2.830910955         93.61146793        0.1521590624        -42.07916547        0.4967462529        -139.2095367
      4.875025e+010        1.077259087        -158.1903039         2.827788846         93.57148227        0.1519429113         -42.1130906        0.4962841576        -139.2447726
      4.880024e+010        1.076802143        -158.2273556         2.824673065         93.53157195        0.1517270588        -42.14684922        0.4958233123        -139.2798735
      4.885023e+010        1.076346075        -158.2642947         2.821563596          93.4917367        0.1515115046        -42.18044159        0.4953637137        -139.3148398
      4.890022e+010        1.075890881        -158.3011216         2.818460427         93.45197626        0.1512962489        -42.21386794        0.4949053585        -139.3496722
      4.895021e+010        1.075436561        -158.3378367         2.815363542         93.41229035        0.1510812915        -42.24712852        0.4944482436        -139.3843708
       4.90002e+010        1.074983114        -158.3744404         2.812272927          93.3726787        0.1508666324        -42.28022357        0.4939923655        -139.4189362
      4.905019e+010        1.074530539        -158.4109331         2.809188568         93.33314107        0.1506522717        -42.31315335        0.4935377211        -139.4533689
      4.910018e+010        1.074078835        -158.4473152          2.80611045         93.29367717        0.1504382092        -42.34591808        0.4930843071        -139.4876692
      4.915017e+010        1.073628001        -158.4835871          2.80303856         93.25428675        0.1502244449        -42.37851801        0.4926321201        -139.5218375
      4.920016e+010        1.073178036        -158.5197491         2.799972882         93.21496954        0.1500109787        -42.41095338        0.4921811571        -139.5558743
      4.925015e+010         1.07272894        -158.5558017         2.796913402         93.17572529        0.1497978107        -42.44322442        0.4917314146          -139.58978
      4.930014e+010        1.072280711        -158.5917453         2.793860107         93.13655373        0.1495849407        -42.47533137        0.4912828896        -139.6235549
      4.935013e+010        1.071833348        -158.6275802         2.790812982         93.09745461        0.1493723687        -42.50727446        0.4908355787        -139.6571997
      4.940012e+010         1.07138685        -158.6633068         2.787772012         93.05842767        0.1491600947        -42.53905393        0.4903894787        -139.6907145
      4.945011e+010        1.070941217        -158.6989255         2.784737184         93.01947265        0.1489481185           -42.57067        0.4899445864           -139.7241
       4.95001e+010        1.070496448        -158.7344367         2.781708483         92.98058929        0.1487364401        -42.60212292        0.4895008987        -139.7573564
      4.955009e+010        1.070052541        -158.7698408         2.778685895         92.94177734        0.1485250594         -42.6334129        0.4890584122        -139.7904842
      4.960008e+010        1.069609495        -158.8051381         2.775669406         92.90303655        0.1483139763        -42.66454017        0.4886171238        -139.8234837
      4.965007e+010         1.06916731         -158.840329         2.772659001         92.86436666        0.1481031909        -42.69550497        0.4881770304        -139.8563555
      4.970006e+010        1.068725984        -158.8754139         2.769654667         92.82576742        0.1478927029         -42.7263075        0.4877381286        -139.8890999
      4.975005e+010        1.068285517        -158.9103931         2.766656389         92.78723858        0.1476825123        -42.75694801        0.4873004154        -139.9217174
      4.980004e+010        1.067845907        -158.9452672         2.763664153          92.7487799        0.1474726191        -42.78742671        0.4868638875        -139.9542082
      4.985003e+010        1.067407154        -158.9800363         2.760677945         92.71039111        0.1472630231        -42.81774382        0.4864285419        -139.9865729
      4.990002e+010        1.066969256        -159.0147009         2.757697751         92.67207198        0.1470537242        -42.84789955        0.4859943753        -140.0188118
      4.995001e+010        1.066532212        -159.0492614         2.754723556         92.63382226        0.1468447224        -42.87789414        0.4855613845        -140.0509254
             5e+010        1.066096021         -159.083718         2.751755348         92.59564169        0.1466360175        -42.90772779        0.4851295665         -140.082914
