! Created Wed Apr 08 16:03:33 2026
# hz S ma R 50
! 2 Port Network Data from SP1.SP block
! freq  magS11  angS11  magS21  angS21  magS12  angS12  magS22  angS22  
!     
           10000000       0.6309494672       -0.2143104013         15.74604938         179.9507062      0.001333349673         7.220622864        0.9832934699        -0.111706449
           59990000       0.6310271692        -1.285575578          15.7461022         179.7042803      0.001669051145         37.03659173        0.9833000501        -0.670129277
          109980000       0.6312158208        -2.356530151         15.74623037         179.4578279      0.002287634648         53.66290865        0.9833160235        -1.228561915
          159970000        0.631515305        -3.426916018         15.74643363         179.2113268      0.003019941076         62.54570985        0.9833413743        -1.787012525
          209960000        0.631925436        -4.496476357         15.74671158          178.964755      0.003800712173         67.69101399        0.9833760772        -2.345489253
          259950000       0.6324459599        -5.564956199         15.74706366         178.7180904      0.004605269677         70.90150398        0.9834200974        -2.904000212
          309940000       0.6330765553        -6.632102987         15.74748914         178.4713109      0.005422935004         73.01142972        0.9834733911         -3.46255348
          359930000       0.6338168339        -7.697667131         15.74798717         178.2243948      0.006248456834         74.44372645        0.9835359049        -4.021157088
          409920000       0.6346663412        -8.761402532         15.74855673           177.97732      0.007078975124         75.43184447         0.983607576        -4.579819013
          459910000       0.6356245579        -9.823067109         15.74919666         177.7300649      0.007912801245         76.11403007        0.9836883325        -5.138547165
          509900000       0.6366909007        -10.88242328         15.74990565         177.4826077       0.00874887101         76.57696279        0.9837780931        -5.697349382
          559890000       0.6378647236        -11.93923844         15.75068222         177.2349268      0.009586476405         76.87758626        0.9838767671         -6.25623342
          609880000       0.6391453194        -12.99328542         15.75152476         176.9870009       0.01042512403         77.05478069        0.9839842549        -6.815206944
          659870000       0.6405319211        -14.04434285         15.75243152         176.7388086        0.0112644558         77.13596455        0.9841004472        -7.374277517
          709860000       0.6420237034        -15.09219562         15.75340057         176.4903288       0.01210420218         77.14101027        0.9842252257        -7.933452595
          759850000       0.6436197845         -16.1366352         15.75442986         176.2415403       0.01294415347         77.08466321        0.9843584631        -8.492739515
          809840000       0.6453192278        -17.17745994         15.75551719         175.9924224       0.01378414149         76.97808901        0.9845000227        -9.052145485
          859830000       0.6471210435        -18.21447544         15.75666019         175.7429544       0.01462402752         76.82989408        0.9846497587         -9.61167758
          909820000       0.6490241911        -19.24749473         15.75785638         175.4931157       0.01546369418         76.64681669        0.9848075163        -10.17134273
          959810000       0.6510275806        -20.27633853          15.7591031         175.2428863       0.01630303974         76.43420604        0.9849731316         -10.7311477
         1009800000       0.6531300749        -21.30083547         15.76039757         174.9922459       0.01714197417         76.19636149        0.9851464318        -11.29109911
         1059790000       0.6553304918        -22.32082222         15.76173686         174.7411747       0.01798041621         75.93677714         0.985327235         -11.8512034
         1109780000       0.6576276059        -23.33614361          15.7631179         174.4896532       0.01881829131         75.65832122        0.9855153506        -12.41146682
         1159770000       0.6600201507        -24.34665277         15.76453747         174.2376619       0.01965552998         75.36336966        0.9857105788        -12.97189544
         1209760000       0.6625068209        -25.35221114         15.76599222         173.9851819       0.02049206662         75.05390694        0.9859127114        -13.53249513
         1259750000        0.665086274        -26.35268856         15.76747866         173.7321943       0.02132783863         74.73160312        0.9861215312        -14.09327155
         1309740000       0.6677571326        -27.34796322         15.76899316         173.4786806       0.02216278562         74.39787343        0.9863368124        -14.65423013
         1359730000       0.6705179868        -28.33792169         15.77053196         173.2246225       0.02299684894         74.05392486        0.9865583206        -15.21537609
         1409720000       0.6733673953        -29.32245883         15.77209114         172.9700021       0.02382997112         73.70079286         0.986785813        -15.77671442
         1459710000       0.6763038885        -30.30147772         15.77366669         172.7148018       0.02466209563         73.33937058         0.987019038        -16.33824985
         1509700000       0.6793259693        -31.27488961         15.77525442         172.4590044       0.02549316647         72.97043239         0.987257736        -16.89998685
         1559690000       0.6824321161        -32.24261371         15.77685006         172.2025929       0.02632312802         72.59465282        0.9875016389        -17.46192966
         1609680000       0.6856207838        -33.20457714         15.77844918         171.9455508       0.02715192481         72.21262208        0.9877504704        -18.02408222
         1659670000        0.688890406        -34.16071471         15.78004722         171.6878617       0.02797950132         71.82485872        0.9880039462         -18.5864482
         1709660000       0.6922393967        -35.11096876         15.78163952           171.42951       0.02880580191         71.43182014        0.9882617738        -19.14903097
         1759650000       0.6956661521          -36.055289         15.78322127           171.17048       0.02963077063         71.03391129         0.988523653        -19.71183362
         1809640000       0.6991690519        -36.99363224         15.78478757         170.9107569       0.03045435119         70.63149194        0.9887892757        -20.27485893
         1859630000       0.7027464613        -37.92596224         15.78633337         170.6503258       0.03127648681         70.22488279        0.9890583261        -20.83810936
         1909620000       0.7063967321        -38.85224943         15.78785352         170.3891727       0.03209712022         69.81437061        0.9893304809        -21.40158704
         1959610000       0.7101182044         -39.7724707         15.78934276         170.1272836       0.03291619352         69.40021262        0.9896054094        -21.96529377
         2009600000       0.7139092079        -40.68660916         15.79079572         169.8646452       0.03373364818         68.98264023        0.9898827734        -22.52923103
         2059590000       0.7177680634        -41.59465387          15.7922069         169.6012447       0.03454942498         68.56186216        0.9901622278        -23.09339992
         2109580000       0.7216930835        -42.49659961         15.79357072         169.3370696       0.03536346396         68.13806725        0.9904434203        -23.65780121
         2159570000       0.7256825746        -43.39244659         15.79488149         169.0721078       0.03617570441         67.71142675        0.9907259919        -24.22243528
         2209560000       0.7297348371        -44.28220023         15.79613341         168.8063479       0.03698608481          67.2820964        0.9910095767        -24.78730214
         2259550000       0.7338481672        -45.16587088         15.79732059         168.5397789       0.03779454283         66.85021818        0.9912938022        -25.35240144
         2309540000       0.7380208577        -46.04347356         15.79843705         168.2723902       0.03860101529         66.41592185        0.9915782899        -25.91773242
         2359530000       0.7422511986        -46.91502769          15.7994767         168.0041719       0.03940543818         65.97932631        0.9918626548        -26.48329393
         2409520000       0.7465374784        -47.78055686          15.8004334         167.7351145       0.04020774658         65.54054075        0.9921465059         -27.0490844
         2459510000       0.7508779847        -48.64008857         15.80130088          167.465209       0.04100787473         65.09966573        0.9924294464        -27.61510187
         2509500000       0.7552710051        -49.49365396         15.80207282          167.194447       0.04180575598         64.65679406         0.992711074        -28.18134395
         2559490000       0.7597148277        -50.34128759         15.80274281         166.9228207       0.04260132276         64.21201162        0.9929909807        -28.74780782
         2609480000       0.7642077421        -51.18302718         15.80330438         166.6503226       0.04339450663          63.7653981        0.9932687537        -29.31449022
         2659470000       0.7687480396        -52.01891338         15.80375098         166.3769461       0.04418523827         63.31702757        0.9935439749        -29.88138746
         2709460000       0.7733340143        -52.84898957         15.80407599          166.102685       0.04497344744         62.86696914        0.9938162214         -30.4484954
         2759450000       0.7779639632        -53.67330157         15.80427275         165.8275335       0.04575906306         62.41528737        0.9940850661        -31.01580945
         2809440000       0.7826361869         -54.4918975         15.80433451         165.5514868       0.04654201313          61.9620428        0.9943500772        -31.58332455
         2859430000       0.7873489901        -55.30482752          15.8042545         165.2745404       0.04732222483         61.50729231        0.9946108192        -32.15103518
         2909420000       0.7921006819        -56.11214364         15.80402588         164.9966904       0.04809962446          61.0510895        0.9948668527        -32.71893535
         2959410000       0.7968895763        -56.91389955         15.80364177         164.7179336        0.0488741375         60.59348502        0.9951177346        -33.28701859
         3009400000       0.8017139928        -57.71015037         15.80309527         164.4382674       0.04964568861         60.13452684        0.9953630189        -33.85527795
         3059390000       0.8065722563        -58.50095255         15.80237943         164.1576897       0.05041420163         59.67426058        0.9956022562        -34.42370598
         3109380000       0.8114626977        -59.28636363         15.80148725         163.8761992       0.05117959965         59.21272966        0.9958349949        -34.99229477
         3159370000       0.8163836544        -60.06644211         15.80041175         163.5937951       0.05194180498         58.74997559        0.9960607805        -35.56103588
         3209360000       0.8213334702        -60.84124728         15.79914589         163.3104773       0.05270073922         58.28603814        0.9962791568        -36.12992039
         3259350000       0.8263104959        -61.61083907         15.79768265         163.0262463       0.05345632326         57.82095554        0.9964896655        -36.69893887
         3309340000       0.8313130894        -62.37527792         15.79601498         162.7411032       0.05420847731         57.35476461        0.9966918471        -37.26808139
         3359330000       0.8363396162         -63.1346246         15.79413582         162.4550498       0.05495712095         56.88750092        0.9968852406        -37.83733751
         3409320000       0.8413884494        -63.88894014         15.79203814         162.1680886       0.05570217313         56.41919896        0.9970693844        -38.40669627
         3459310000         0.84645797        -64.63828568         15.78971489         161.8802227       0.05644355225         55.94989221        0.9972438162         -38.9761462
         3509300000       0.8515465674        -65.38272234         15.78715904         161.5914557       0.05718117616          55.4796133        0.9974080737        -39.54567532
         3559290000       0.8566526392        -66.12231113          15.7843636         161.3017921       0.05791496222         55.00839407        0.9975616946        -40.11527113
         3609280000       0.8617745919        -66.85711284         15.78132157         161.0112369       0.05864482731         54.53626572         0.997704217        -40.68492061
         3659270000       0.8669108409        -67.58718795           15.778026         160.7197959       0.05937068793         54.06325884        0.9978351802        -41.25461023
         3709260000       0.8720598109        -68.31259654         15.77446997         160.4274753       0.06009246018         53.58940351        0.9979541243        -41.82432594
         3759250000       0.8772199357        -69.03339819         15.77064662         160.1342822       0.06081005984         53.11472939        0.9980605912        -42.39405315
         3809240000       0.8823896593        -69.74965192         15.76654911         159.8402243       0.06152340244         52.63926576        0.9981541245        -42.96377679
         3859230000       0.8875674354        -70.46141613         15.76217066         159.5453098       0.06223240325          52.1630416        0.9982342704        -43.53348125
         3909220000       0.8927517278        -71.16874847         15.75750458         159.2495478       0.06293697738         51.68608562        0.9983005773        -44.10315042
         3959210000       0.8979410111        -71.87170587          15.7525442         158.9529479       0.06363703979         51.20842635        0.9983525969        -44.67276765
         4009200000       0.9031337705         -72.5703444         15.74728295         158.6555202       0.06433250542         50.73009214        0.9983898843        -45.24231583
         4059190000       0.9083285023        -73.26471926         15.74171433         158.3572759       0.06502328914         50.25111125        0.9984119982         -45.8117773
         4109180000       0.9135237144        -73.95488473         15.73583194         158.0582263       0.06570930589         49.77151183        0.9984185016        -46.38113393
         4159170000        0.918717926        -74.64089412         15.72962944         157.7583837        0.0663904707         49.29132201        0.9984089617        -46.95036706
         4209160000       0.9239096685        -75.32279973         15.72310061          157.457761       0.06706669877          48.8105699        0.9983829509        -47.51945758
         4259150000       0.9290974857         -76.0006528         15.71623932         157.1563715        0.0677379055         48.32928363        0.9983400467        -48.08838584
         4309140000       0.9342799339        -76.67450352         15.70903955         156.8542293       0.06840400658         47.84749137        0.9982798322        -48.65713177
         4359130000       0.9394555825        -77.34440096          15.7014954         156.5513491       0.06906491804         47.36522134        0.9982018966        -49.22567476
         4409120000       0.9446230141        -78.01039306         15.69360108         156.2477462       0.06972055631         46.88250188        0.9981058353        -49.79399379
         4459110000       0.9497808252        -78.67252663         15.68535094         155.9434365       0.07037083829         46.39936139        0.9979912506        -50.36206734
         4509100000       0.9549276262        -79.33084729         15.67673944         155.6384364        0.0710156814         45.91582841        0.9978577517        -50.92987345
         4559090000       0.9600620421        -79.98539951         15.66776119         155.3327631       0.07165500367          45.4319316        0.9977049554        -51.49738972
         4609080000       0.9651827125        -80.63622653         15.65841095          155.026434        0.0722887238         44.94769978        0.9975324863         -52.0645933
         4659070000       0.9702882926        -81.28337043         15.64868361         154.7194675        0.0729167612          44.4631619        0.9973399771        -52.63146092
         4709060000       0.9753774528        -81.92687205         15.63857422         154.4118823       0.07353903609         43.97834709         0.997127069         -53.1979689
         4759050000       0.9804488798        -82.56677105           15.628078         154.1036976       0.07415546952         43.49328462         0.996893412        -53.76409315
         4809040000       0.9855012766        -83.20310586          15.6171903         153.7949333       0.07476598351         43.00800396        0.9966386655        -54.32980918
         4859030000       0.9905333632         -83.8359137         15.60590668         153.4856096       0.07537050103         42.52253474         0.996362498        -54.89509212
         4909020000       0.9955438766        -84.46523058         15.59422285         153.1757475       0.07596894615         42.03690675        0.9960645883        -55.45991672
         4959010000        1.000531572        -85.09109134          15.5821347         152.8653683       0.07656124402         41.55114999        0.9957446249        -56.02425737
         5009000000        1.005495222        -85.71352958          15.5696383         152.5544938       0.07714732102         41.06529461        0.9954023069        -56.58808813
         5058990000        1.010433618        -86.33257774          15.5567299         152.2431462       0.07772710477         40.57937095        0.9950373441         -57.1513827
         5108980000        1.015345571         -86.9482671         15.54340597         151.9313483        0.0783005242          40.0934095        0.9946494573        -57.71411447
         5158970000         1.02022991        -87.56062774         15.52966313         151.6191233       0.07886750963         39.60744093        0.9942383786        -58.27625654
         5208960000        1.025085486        -88.16968862         15.51549825         151.3064946       0.07942799283         39.12149608        0.9938038515        -58.83778168
         5258950000        1.029911167        -88.77547756         15.50090834         150.9934865       0.07998190708         38.63560594        0.9933456314        -59.39866242
         5308940000        1.034705846        -89.37802125         15.48589068         150.6801231        0.0805291872         38.14980162        0.9928634856          -59.958871
         5358930000        1.039468432         -89.9773453          15.4704427         150.3664293       0.08106976969         37.66411442        0.9923571937        -60.51837942
         5408920000        1.044197859        -90.57347423         15.45456208         150.0524302       0.08160359268         37.17857574        0.9918265477        -61.07715946
         5458910000        1.048893082        -91.16643149         15.43824669         149.7381512       0.08213059608          36.6932171        0.9912713522        -61.63518267
         5508900000        1.053553079        -91.75623951         15.42149463         149.4236182       0.08265072158         36.20807016        0.9906914247        -62.19242041
         5558890000        1.058176848        -92.34291969         15.40430422         149.1088571       0.08316391274         35.72316666        0.9900865955        -62.74884385
         5608880000        1.062763412        -92.92649243         15.38667398         148.7938945         0.083670115         35.23853843        0.9894567082          -63.304424
         5658870000        1.067311819        -93.50697717         15.36860267         148.4787568       0.08416927578          34.7542174        0.9888016196        -63.85913172
         5708860000        1.071821137        -94.08439239         15.35008926          148.163471       0.08466134448         34.27023555           0.9881212        -64.41293774
         5758850000         1.07629046        -94.65875565         15.33113296         147.8480642       0.08514627257         33.78662491         0.987415333        -64.96581266
         5808840000        1.080718907        -95.23008361         15.31173319         147.5325638       0.08562401359         33.30341757         0.986683916        -65.51772702
         5858830000        1.085105621        -95.79839206          15.2918896         147.2169972       0.08609452324         32.82064562          0.98592686        -66.06865124
         5908820000        1.089449769        -96.36369595         15.27160206         146.9013923       0.08655775938          32.3383412        0.9851440896        -66.61855572
         5958810000        1.093750545         -96.9260094         15.25087068         146.5857768       0.08701368209         31.85653641        0.9843355433        -67.16741079
         6008800000        1.098007168        -97.48534573         15.22969579         146.2701787        0.0874622537         31.37526336        0.9835011735        -67.71518676
         6058790000        1.102218882        -98.04171752         15.20807793         145.9546262       0.08790343881         30.89455413        0.9826409463        -68.26185395
         6108780000        1.106384958        -98.59513657         15.18601788         145.6391475       0.08833720435         30.41444073        0.9817548417        -68.80738267
         6158770000        1.110504692        -99.14561401         15.16351665         145.3237708       0.08876351957         29.93495513        0.9808428533        -69.35174328
         6208760000        1.114577407        -99.69316026         15.14057545         145.0085246       0.08918235611         29.45612922        0.9799049887        -69.89490617
         6258750000        1.118602454        -100.2377851         15.11719572         144.6934372       0.08959368797         28.97799481        0.9789412691        -70.43684182
         6308740000        1.122579208        -100.7794977         15.09337914          144.378537       0.08999749158         28.50058357        0.9779517295        -70.97752078
         6358730000        1.126507074        -101.3183065         15.06912757         144.0638525       0.09039374578         28.02392707        0.9769364182        -71.51691369
         6408720000         1.13038548        -101.8542195         15.04444311         143.7494121       0.09078243186         27.54805675        0.9758953973        -72.05499134
         6458710000        1.134213884        -102.3872443         15.01932807          143.435244       0.09116353357         27.07300387        0.9748287419        -72.59172464
         6508700000        1.137991771        -102.9173876         14.99378496         143.1213768       0.09153703709         26.59879954        0.9737365406        -73.12708465
         6558690000        1.141718652        -103.4446558          14.9678165         142.8078385        0.0919029311         26.12547468         0.972618895        -73.66104262
         6608680000        1.145394066         -103.969055         14.94142563         142.4946573       0.09226120673            25.65306        0.9714759196        -74.19356997
         6658670000        1.149017577        -104.4905906         14.91461546         142.1818613       0.09261185759         25.18158601        0.9703077418        -74.72463835
         6708660000        1.152588779        -105.0092677         14.88738931         141.8694785       0.09295487976         24.71108298        0.9691145014        -75.25421961
         6758650000        1.156107292        -105.5250911         14.85975071         141.5575364       0.09329027178         24.24158093        0.9678963507        -75.78228585
         6808640000        1.159572762        -106.0380651         14.83170336         141.2460629       0.09361803467         23.77310962        0.9666534542        -76.30880943
         6858630000        1.162984864        -106.5481936         14.80325114         140.9350853       0.09393817186         23.30569855        0.9653859883        -76.83376296
         6908620000        1.166343296        -107.0554805         14.77439812         140.6246309       0.09425068925         22.83937692         0.964094141        -77.35711936
         6958610000        1.169647787        -107.5599292         14.74514856         140.3147266       0.09455559516         22.37417362         0.962778112        -77.87885184
         7008600000         1.17289809        -108.0615427         14.71550686         140.0053993       0.09485290029         21.91011724        0.9614381122        -78.39893392
         7058590000        1.176093984        -108.5603241         14.68547761         139.6966756       0.09514261773         21.44723603        0.9600743633        -78.91733946
         7108580000        1.179235275         -109.056276         14.65506555         139.3885817       0.09542476296         20.98555789        0.9586870978        -79.43404266
         7158570000        1.182321794        -109.5494011         14.62427559         139.0811437       0.09569935377         20.52511038        0.9572765584        -79.94901806
         7208560000        1.185353399        -110.0397015         14.59311277         138.7743874       0.09596641026          20.0659207        0.9558429984         -80.4622406
         7258550000        1.188329972        -110.5271795          14.5615823         138.4683382       0.09622595483         19.60801564        0.9543866802        -80.97368557
         7308540000        1.191251421        -111.0118373         14.52968951         138.1630211        0.0964780121         19.15142162        0.9529078764        -81.48332868
         7358530000        1.194117676        -111.4936768         14.49743987         137.8584612       0.09672260894         18.69616467        0.9514068682        -81.99114603
         7408520000        1.196928695        -111.9726998         14.46483899         137.5546828       0.09695977438         18.24227038        0.9498839461        -82.49711414
         7458510000        1.199684458        -112.4489082         14.43189259           137.25171        0.0971895396         17.78976394        0.9483394088        -83.00120994
         7508500000        1.202384969        -112.9223038         14.39860651         136.9495666       0.09741193787         17.33867011        0.9467735634        -83.50341083
         7558490000        1.205030254        -113.3928882         14.36498673         136.6482761       0.09762700456         16.88901319        0.9451867248        -84.00369463
         7608480000        1.207620366        -113.8606633         14.33103928         136.3478614       0.09783477701         16.44081705        0.9435792155        -84.50203962
         7658470000        1.210155375        -114.3256308         14.29677035         136.0483451       0.09803529459          15.9941051         0.941951365        -84.99842455
         7708460000        1.212635376        -114.7877923         14.26218619         135.7497496       0.09822859856         15.54890027        0.9403035099        -85.49282863
         7758450000        1.215060487        -115.2471498         14.22729314         135.4520966        0.0984147321         15.10522503        0.9386359931        -85.98523156
         7808440000        1.217430843         -115.703705         14.19209764         135.1554074       0.09859374019         14.66310137        0.9369491637        -86.47561353
         7858430000        1.219746604        -116.1574599          14.1566062         134.8597032       0.09876566962          14.2225508        0.9352433765         -86.9639552
         7908420000        1.222007947        -116.6084164         14.12082538         134.5650044       0.09893056892         13.78359433         0.933518992        -87.45023774
         7958410000        1.224215071        -117.0565766         14.08476185         134.2713312       0.09908848829         13.34625248        0.9317763754        -87.93444285
         8008400000        1.226368192        -117.5019427         14.04842229         133.9787031       0.09923947958         12.91054526        0.9300158971        -88.41655268
         8058390000        1.228467547        -117.9445169         14.01181348         133.6871395       0.09938359622         12.47649219        0.9282379315        -88.89654995
         8108380000         1.23051339        -118.3843018         13.97494221          133.396659       0.09952089314         12.04411226        0.9264428573        -89.37441787
         8158370000        1.232505992        -118.8212998         13.93781533           133.10728       0.09965142677         11.61342397        0.9246310568        -89.85014017
         8208360000        1.234445643        -119.2555137         13.90043973         132.8190203       0.09977525496         11.18444529        0.9228029157        -90.32370111
         8258350000        1.236332648        -119.6869463         13.86282233         132.5318973        0.0998924369         10.75719367        0.9209588226        -90.79508546
         8308340000         1.23816733        -120.1156007         13.82497007         132.2459278        0.1000030331         10.33168606        0.9190991691        -91.26427855
         8358330000        1.239950025          -120.54148         13.78688992         131.9611283        0.1001071053         9.907938857         0.917224349         -91.7312662
         8408320000        1.241681086        -120.9645877         13.74858885         131.6775148        0.1002047165         9.485967968        0.9153347579        -92.19603479
         8458310000        1.243360881        -121.3849273         13.71007386         131.3951027        0.1002959308         9.065788758        0.9134307935        -92.65857122
         8508300000        1.244989789        -121.8025027         13.67135193          131.113907        0.1003808133         8.647416076        0.9115128547         -93.1188629
         8558290000        1.246568206        -122.2173176         13.63243007         130.8339422        0.1004594303         8.230864244        0.9095813416        -93.57689782
         8608280000        1.248096539        -122.6293764         13.59331527         130.5552224        0.1005318488         7.816147065         0.907636655        -94.03266444
         8658270000        1.249575207        -123.0386835         13.55401451          130.277761        0.1005981371          7.40327782        0.9056791963        -94.48615179
         8708260000        1.251004641        -123.4452433         13.51453475         130.0015713         0.100658364         6.992269272        0.9037093669        -94.93734941
         8758250000        1.252385285        -123.8490608         13.47488294         129.7266658        0.1007125993         6.583133663        0.9017275684        -95.38624738
         8808240000        1.253717592         -124.250141         13.43506602         129.4530565        0.1007609135         6.175882724        0.8997342018        -95.83283627
         8858230000        1.255002026        -124.6484891         13.39509088         129.1807552        0.1008033779         5.770527668        0.8977296676         -96.2771072
         8908220000        1.256239059        -125.0441107          13.3549644         128.9097731        0.1008400641         5.367079204        0.8957143654         -96.7190518
         8958210000        1.257429175        -125.4370115         13.31469339         128.6401208        0.1008710448         4.965547529        0.8936886937        -97.15866221
         9008200000        1.258572863        -125.8271974         13.27428466         128.3718086        0.1008963927          4.56594234        0.8916530494        -97.59593107
         9058190000        1.259670625        -126.2146746         13.23374497         128.1048462        0.1009161815         4.168272833        0.8896078279        -98.03085153
         9108180000        1.260722966        -126.5994496         13.19308101          127.839243         0.100930485         3.772547712        0.8875534229        -98.46341726
         9158170000        1.261730401         -126.981529         13.15229944         127.5750078        0.1009393774         3.378775188        0.8854902256         -98.8936224
         9208160000        1.262693449        -127.3609197         13.11140686          127.312149        0.1009429334         2.986962986        0.8834186253        -99.32146159
         9258150000        1.263612639        -127.7376288         13.07040983         127.0506746        0.1009412279         2.597118353        0.8813390086        -99.74692997
         9308140000        1.264488502        -128.1116637         13.02931482         126.7905921        0.1009343361         2.209248057        0.8792517593        -100.1700231
         9358130000        1.265321577         -128.483032         12.98812827         126.5319085        0.1009223332         1.823358399        0.8771572584        -100.5907372
         9408120000        1.266112405        -128.8517415         12.94685654         126.2746305        0.1009052948         1.439455215        0.8750558837        -101.0090686
         9458110000        1.266861533        -129.2178002         12.90550592         126.0187642        0.1008832966         1.057543883          0.87294801        -101.4250145
         9508100000        1.267569513        -129.5812164         12.86408262         125.7643155         0.100856414        0.6776293269        0.8708340083        -101.8385724
         9558090000        1.268236898        -129.9419987         12.82259282         125.5112897        0.1008247229        0.2997160275        0.8687142462          -102.24974
         9608080000        1.268864245        -130.3001557         12.78104258         125.2596918         0.100788299      -0.07619197522        0.8665890876        -102.6585159
         9658070000        1.269452115        -130.6556964          12.7394379         125.0095262        0.1007472178       -0.4500910735        0.8644588922        -103.0648987
         9708060000        1.270001068        -131.0086299          12.6977847         124.7607971        0.1007015549       -0.8219780854        0.8623240161        -103.4688878
         9758050000         1.27051167        -131.3589657         12.65608884         124.5135083        0.1006513856        -1.191850248        0.8601848109        -103.8704828
         9808040000        1.270984485        -131.7067132         12.61435606         124.2676631        0.1005967851        -1.559705211         0.858041624        -104.2696837
         9858030000        1.271420079        -132.0518824         12.57259205         124.0232645        0.1005378286        -1.925541027        0.8558947985         -104.666491
         9908020000        1.271819019        -132.3944831         12.53080239         123.7803151        0.1004745907        -2.289356149        0.8537446728        -105.0609056
         9958010000        1.272181874        -132.7345257          12.4889926          123.538817         0.100407146        -2.651149416         0.851591581        -105.4529288
        1.0008e+010        1.272509209        -133.0720204         12.44716809         123.2987722        0.1003355687        -3.010920054        0.8494358523        -105.8425623
      1.005799e+010        1.272801593        -133.4069778          12.4053342         123.0601822        0.1002599326         -3.36866766        0.8472778111         -106.229808
      1.010798e+010        1.273059592        -133.7394088         12.36349616         122.8230481        0.1001803113        -3.724392203         0.845117777        -106.6146683
      1.015797e+010        1.273283771        -134.0693242         12.32165912         122.5873707        0.1000967778        -4.078094007        0.8429560647         -106.997146
      1.020796e+010        1.273474696        -134.3967353         12.27982815         122.3531506        0.1000094048        -4.429773753        0.8407929839        -107.3772443
      1.025795e+010        1.273632927        -134.7216532          12.2380082         122.1203879       0.09991826471        -4.779432464        0.8386288393        -107.7549665
      1.030794e+010        1.273759028        -135.0440896         12.19620417         121.8890824        0.0998234292          -5.1270715        0.8364639303        -108.1303166
      1.035793e+010        1.273853557        -135.3640559         12.15442082         121.6592336        0.0997249696         -5.47269255        0.8342985514        -108.5032985
      1.040792e+010         1.27391707         -135.681564         12.11266286         121.4308408       0.09962295668        -5.816297625        0.8321329919        -108.8739169
      1.045791e+010        1.273950123        -135.9966259         12.07093487          121.203903       0.09951746071         -6.15788905        0.8299675356        -109.2421763
       1.05079e+010        1.273953265        -136.3092536         12.02924136         120.9784186       0.09940855137        -6.497469455        0.8278024614        -109.6080819
      1.055789e+010        1.273927047        -136.6194595         11.98758674         120.7543862       0.09929629778        -6.835041769        0.8256380428        -109.9716392
      1.060788e+010        1.273872013        -136.9272558         11.94597533         120.5318037       0.09918076848        -7.170609211         0.823474548        -110.3328536
      1.065787e+010        1.273788705        -137.2326551         11.90441134         120.3106689       0.09906203139        -7.504175282        0.8213122399        -110.6917312
      1.070786e+010        1.273677662        -137.5356701         11.86289891         120.0909795       0.09894015379        -7.835743761         0.819151376        -111.0482782
      1.075785e+010        1.273539418        -137.8363135         11.82144208         119.8727327       0.09881520235        -8.165318692        0.8169922089         -111.402501
      1.080784e+010        1.273374503        -138.1345982         11.78004478         119.6559255       0.09868724305         -8.49290438        0.8148349853        -111.7544065
      1.085783e+010        1.273183444        -138.4305373         11.73871087         119.4405547       0.09855634124        -8.818505382        0.8126799471        -112.1040015
      1.090782e+010        1.272966764        -138.7241438          11.6974441         119.2266169       0.09842256155        -9.142126502        0.8105273306        -112.4512934
      1.095781e+010        1.272724979         -139.015431         11.65624815         119.0141085       0.09828596796        -9.463772781        0.8083773671        -112.7962896
       1.10078e+010        1.272458604        -139.3044121         11.61512659         118.8030255       0.09814662371        -9.783449489        0.8062302824        -113.1389978
      1.105779e+010        1.272168147        -139.5911007          11.5740829         118.5933639       0.09800459136        -10.10116212        0.8040862972         -113.479426
      1.110778e+010        1.271854111        -139.8755102         11.53312048         118.3851194       0.09785993271        -10.41691639        0.8019456269        -113.8175822
      1.115777e+010        1.271516996        -140.1576543         11.49224263         118.1782874       0.09771270888        -10.73071821        0.7998084818        -114.1534748
      1.120776e+010        1.271157294        -140.4375465         11.45145258         117.9728632       0.09756298022        -11.04257372        0.7976750671        -114.4871124
      1.125775e+010        1.270775495        -140.7152007         11.41075346         117.7688421       0.09741080635        -11.35248921        0.7955455827        -114.8185037
      1.130774e+010        1.270372082        -140.9906306          11.3701483         117.5662189       0.09725624613        -11.66047121        0.7934202237        -115.1476576
      1.135773e+010        1.269947534        -141.2638502         11.32964007         117.3649884       0.09709935769         -11.9665264        0.7912991799        -115.4745833
      1.140772e+010        1.269502322        -141.5348734         11.28923164         117.1651452       0.09694019838        -12.27066164        0.7891826363        -115.7992899
      1.145771e+010        1.269036914        -141.8037142         11.24892579         116.9666837        0.0967788248        -12.57288397        0.7870707729         -116.121787
       1.15077e+010        1.268551772        -142.0703867         11.20872524         116.7695982       0.09661529278        -12.87320057        0.7849637646        -116.4420841
      1.155769e+010        1.268047352        -142.3349049          11.1686326         116.5738829        0.0964496574        -13.17161881        0.7828617819         -116.760191
      1.160768e+010        1.267524105        -142.5972831         11.12865042         116.3795317       0.09628197294        -13.46814617          0.78076499        -117.0761176
      1.165767e+010        1.266982475        -142.8575354         11.08878116         116.1865385       0.09611229296        -13.76279031        0.7786735497        -117.3898739
      1.170766e+010        1.266422901        -143.1156761         11.04902721         115.9948969       0.09594067019        -14.05555899         0.776587617        -117.7014701
      1.175765e+010        1.265845817        -143.3717193         11.00939086         115.8046007       0.09576715664        -14.34646015        0.7745073433        -118.0109165
      1.180764e+010         1.26525165        -143.6256795         10.96987435         115.6156432       0.09559180353        -14.63550181        0.7724328753        -118.3182234
      1.185763e+010        1.264640823        -143.8775709         10.93047982         115.4280179        0.0954146613        -14.92269213        0.7703643554        -118.6234015
      1.190762e+010        1.264013751        -144.1274077         10.89120937         115.2417179       0.09523577965        -15.20803939        0.7683019213        -118.9264614
      1.195761e+010        1.263370844        -144.3752045         10.85206498         115.0567364        0.0950552075        -15.49155198        0.7662457066        -119.2274138
       1.20076e+010        1.262712507        -144.6209755          10.8130486         114.8730665       0.09487299299        -15.77323837        0.7641958402        -119.5262697
      1.205759e+010        1.262039138         -144.864735         10.77416209          114.690701       0.09468918354        -16.05310716         0.762152447        -119.8230398
      1.210758e+010         1.26135113        -145.1064975         10.73540723         114.5096329       0.09450382578        -16.33116702        0.7601156477        -120.1177353
      1.215757e+010        1.260648869        -145.3462774         10.69678575         114.3298549       0.09431696559        -16.60742672        0.7580855587        -120.4103672
      1.220756e+010        1.259932737        -145.5840889         10.65829931         114.1513596       0.09412864812        -16.88189512        0.7560622924        -120.7009468
      1.225755e+010        1.259203108        -145.8199464         10.61994948         113.9741398       0.09393891775        -17.15458114        0.7540459573        -120.9894854
      1.230754e+010        1.258460351        -146.0538644         10.58173781         113.7981879       0.09374781812         -17.4254938        0.7520366579        -121.2759942
      1.235753e+010        1.257704831        -146.2858571         10.54366575         113.6234964       0.09355539217        -17.69464215        0.7500344946        -121.5604846
      1.240752e+010        1.256936904        -146.5159388         10.50573468         113.4500577       0.09336168205        -17.96203535        0.7480395643        -121.8429682
      1.245751e+010        1.256156923         -146.744124         10.46794596         113.2778641       0.09316672924         -18.2276826          0.74605196        -122.1234564
       1.25075e+010        1.255365234        -146.9704267         10.43030086         113.1069081       0.09297057446        -18.49159315         0.744071771        -122.4019608
      1.255749e+010        1.254562178        -147.1948614         10.39280058         112.9371817       0.09277325773         -18.7537763        0.7420990832         -122.678493
      1.260748e+010        1.253748088        -147.4174422          10.3554463         112.7686771       0.09257481836        -19.01424143        0.7401339788        -122.9530647
      1.265747e+010        1.252923295        -147.6381833          10.3182391         112.6013867       0.09237529496        -19.27299793        0.7381765364        -123.2256875
      1.270746e+010        1.252088123        -147.8570989         10.28118005         112.4353023       0.09217472545        -19.53005524        0.7362268315        -123.4963732
      1.275745e+010        1.251242888        -148.0742032         10.24427012         112.2704162       0.09197314704        -19.78542285         0.734284936        -123.7651335
      1.280744e+010        1.250387904        -148.2895102         10.20751026         112.1067203       0.09177059627        -20.03911026        0.7323509186        -124.0319803
      1.285743e+010        1.249523477        -148.5030341         10.17090136         111.9442066       0.09156710901        -20.29112703        0.7304248448        -124.2969252
      1.290742e+010         1.24864991        -148.7147887         10.13444424         111.7828672       0.09136272046        -20.54148271        0.7285067771        -124.5599802
      1.295741e+010        1.247767499        -148.9247881         10.09813969         111.6226939       0.09115746514         -20.7901869        0.7265967747         -124.821157
       1.30074e+010        1.246876533        -149.1330463         10.06198846         111.4636788       0.09095137693        -21.03724921        0.7246948939        -125.0804676
      1.305739e+010          1.2459773         -149.339577         10.02599123         111.3058137       0.09074448907        -21.28267928        0.7228011881        -125.3379238
      1.310738e+010         1.24507008        -149.5443942         9.990148641         111.1490906       0.09053683415        -21.52648673        0.7209157076        -125.5935374
      1.315737e+010        1.244155147        -149.7475115         9.954461292         110.9935013       0.09032844413        -21.76868123        0.7190385002        -125.8473203
      1.320736e+010        1.243232772        -149.9489428         9.918929737         110.8390377       0.09011935036        -22.00927244        0.7171696107        -126.0992845
      1.325735e+010        1.242303219        -150.1487016         9.883554486         110.6856916       0.08990958354        -22.24827001        0.7153090813        -126.3494418
      1.330734e+010        1.241366749        -150.3468016         9.848336007         110.5334551        0.0896991738        -22.48568361        0.7134569515        -126.5978039
      1.335733e+010        1.240423618        -150.5432564         9.813274726         110.3823199       0.08948815064        -22.72152292        0.7116132584        -126.8443829
      1.340732e+010        1.239474073        -150.7380794         9.778371031         110.2322778       0.08927654299        -22.95579759        0.7097780364        -127.0891906
      1.345731e+010        1.238518363        -150.9312841         9.743625268         110.0833209       0.08906437919        -23.18851728        0.7079513175        -127.3322387
       1.35073e+010        1.237556725        -151.1228838         9.709037747         109.9354409       0.08885168698        -23.41969164        0.7061331314        -127.5735391
      1.355729e+010        1.236589397        -151.3128917         9.674608741         109.7886297       0.08863849356        -23.64933031        0.7043235053        -127.8131036
      1.360728e+010         1.23561661        -151.5013213         9.640338486         109.6428792       0.08842482557        -23.87744292        0.7025224642         -128.050944
      1.365727e+010        1.234638589        -151.6881855         9.606227184         109.4981814       0.08821070907        -24.10403908         0.700730031        -128.2870721
      1.370726e+010        1.233655557        -151.8734975         9.572275002         109.3545281        0.0879961696        -24.32912839        0.6989462263        -128.5214995
      1.375725e+010        1.232667731        -152.0572704         9.538482072         109.2119113       0.08778123215        -24.55272042        0.6971710685         -128.754238
      1.380724e+010        1.231675325         -152.239517         9.504848498          109.070323       0.08756592119        -24.77482473        0.6954045742        -128.9852993
      1.385723e+010        1.230678546        -152.4202503         9.471374348          108.929755       0.08735026067        -24.99545086        0.6936467578         -129.214695
      1.390722e+010        1.229677599        -152.5994831         9.438059663         108.7901995       0.08713427401        -25.21460832        0.6918976318        -129.4424367
      1.395721e+010        1.228672684         -152.777228         9.404904451         108.6516483       0.08691798415        -25.43230658        0.6901572068        -129.6685361
       1.40072e+010        1.227663997        -152.9534978         9.371908694         108.5140936       0.08670141352        -25.64855512        0.6884254916        -129.8930046
      1.405719e+010         1.22665173        -153.1283051         9.339072344         108.3775274       0.08648458406        -25.86336335        0.6867024931        -130.1158538
      1.410718e+010         1.22563607        -153.3016622         9.306395328         108.2419418       0.08626751722        -26.07674068        0.6849882166        -130.3370952
      1.415717e+010        1.224617201        -153.4735818         9.273877544         108.1073288       0.08605023399        -26.28869647        0.6832826656        -130.5567401
      1.420716e+010        1.223595303        -153.6440761         9.241518866         107.9736808        0.0858327549        -26.49924005        0.6815858419           -130.7748
      1.425715e+010        1.222570551        -153.8131574         9.209319143         107.8409897       0.08561510001        -26.70838072        0.6798977458        -130.9912863
      1.430714e+010        1.221543118        -153.9808378           9.1772782         107.7092479       0.08539728892        -26.91612774         0.678218376        -131.2062101
      1.435713e+010        1.220513171        -154.1471296         9.145395838         107.5784475       0.08517934081        -27.12249034        0.6765477297        -131.4195829
      1.440712e+010        1.219480876        -154.3120447         9.113671835         107.4485809       0.08496127441        -27.32747769        0.6748858025        -131.6314158
      1.445711e+010        1.218446392        -154.4755951          9.08210595         107.3196403       0.08474310802        -27.53109895        0.6732325889        -131.8417199
       1.45071e+010        1.217409878        -154.6377926         9.050697918         107.1916181       0.08452485952        -27.73336321        0.6715880817        -132.0505064
      1.455709e+010        1.216371487        -154.7986491         9.019447454         107.0645066       0.08430654639        -27.93427954        0.6699522724        -132.2577864
      1.460708e+010         1.21533137        -154.9581762         8.988354253         106.9382983       0.08408818569        -28.13385697        0.6683251513        -132.4635709
      1.465707e+010        1.214289672        -155.1163857         8.957417993         106.8129857       0.08386979408        -28.33210445        0.6667067075        -132.6678707
      1.470706e+010        1.213246539        -155.2732889         8.926638331         106.6885611       0.08365138783        -28.52903094        0.6650969287        -132.8706969
      1.475705e+010         1.21220211        -155.4288974         8.896014907         106.5650173       0.08343298284        -28.72464531        0.6634958014        -133.0720603
      1.480704e+010        1.211156521        -155.5832226         8.865547344         106.4423466       0.08321459459         -28.9189564        0.6619033112        -133.2719717
      1.485703e+010        1.210109907        -155.7362757         8.835235249         106.3205418       0.08299623825          -29.111973        0.6603194423        -133.4704418
      1.490702e+010        1.209062399         -155.888068         8.805078211         106.1995956       0.08277792857        -29.30370386        0.6587441781        -133.6674814
      1.495701e+010        1.208014124        -156.0386106         8.775075805         106.0795005       0.08255967997        -29.49415768        0.6571775008         -133.863101
        1.5007e+010        1.206965206        -156.1879145         8.745227591         105.9602493       0.08234150651        -29.68334309        0.6556193916        -134.0573113
      1.505699e+010        1.205915768        -156.3359907         8.715533114          105.841835        0.0821234219         -29.8712687        0.6540698307        -134.2501227
      1.510698e+010        1.204865927        -156.4828501         8.685991905         105.7242501       0.08190543954        -30.05794306        0.6525287976        -134.4415458
      1.515697e+010          1.2038158        -156.6285034         8.656603484         105.6074878       0.08168757246        -30.24337465        0.6509962705        -134.6315908
      1.520696e+010          1.2027655        -156.7729614         8.627367356         105.4915407       0.08146983338        -30.42757192        0.6494722271        -134.8202682
      1.525695e+010        1.201715137        -156.9162348         8.598283013         105.3764021       0.08125223471        -30.61054327         0.647956644        -135.0075883
      1.530694e+010        1.200664818        -157.0583339         8.569349937         105.2620648       0.08103478853        -30.79229703        0.6464494972        -135.1935612
      1.535693e+010        1.199614648        -157.1992693         8.540567599         105.1485218       0.08081750663         -30.9728415        0.6449507618        -135.3781971
      1.540692e+010         1.19856473        -157.3390514         8.511935456         105.0357665       0.08060040047        -31.15218489        0.6434604122        -135.5615062
      1.545691e+010        1.197515163        -157.4776905          8.48345296         104.9237917       0.08038348125        -31.33033541        0.6419784219        -135.7434984
       1.55069e+010        1.196466044        -157.6151968         8.455119547         104.8125909       0.08016675985        -31.50730116        0.6405047639        -135.9241837
      1.555689e+010        1.195417469        -157.7515803         8.426934648         104.7021572       0.07995024688        -31.68309023        0.6390394106         -136.103572
      1.560688e+010        1.194369529        -157.8868512         8.398897683         104.5924839       0.07973395268        -31.85771063        0.6375823334        -136.2816733
      1.565687e+010        1.193322315        -158.0210194         8.371008062         104.4835643       0.07951788729        -32.03117032        0.6361335036        -136.4584972
      1.570686e+010        1.192275913        -158.1540947         8.343265191         104.3753919       0.07930206051        -32.20347721        0.6346928914        -136.6340535
      1.575685e+010         1.19123041        -158.2860871         8.315668463         104.2679602       0.07908648185        -32.37463916        0.6332604668        -136.8083519
      1.580684e+010        1.190185888        -158.4170061         8.288217267         104.1612625        0.0788711606        -32.54466397         0.631836199         -136.981402
      1.585683e+010        1.189142429        -158.5468615         8.260910983         104.0552924       0.07865610576        -32.71355937        0.6304200568        -137.1532132
      1.590682e+010        1.188100111        -158.6756627         8.233748986         103.9500435        0.0784413261        -32.88133305        0.6290120086        -137.3237951
      1.595681e+010         1.18705901        -158.8034193         8.206730642         103.8455095       0.07822683016        -33.04799265        0.6276120221         -137.493157
       1.60068e+010        1.186019202        -158.9301406         8.179855312         103.7416841       0.07801262621        -33.21354574        0.6262200647        -137.6613084
      1.605679e+010        1.184980758         -159.055836         8.153122353         103.6385608       0.07779872232        -33.37799984        0.6248361034        -137.8282585
      1.610678e+010         1.18394375        -159.1805147         8.126531114         103.5361337       0.07758512632        -33.54136241        0.6234601046        -137.9940164
      1.615677e+010        1.182908246        -159.3041858         8.100080941         103.4343964       0.07737184582        -33.70364086        0.6220920344        -138.1585914
      1.620676e+010        1.181874312        -159.4268584         8.073771172         103.3333429        0.0771588882        -33.86484255        0.6207318587        -138.3219926
      1.625675e+010        1.180842014        -159.5485414         8.047601144         103.2329671       0.07694626064        -34.02497477        0.6193795427        -138.4842289
      1.630674e+010        1.179811414        -159.6692439         8.021570188         103.1332629        0.0767339701        -34.18404475        0.6180350516        -138.6453094
      1.635673e+010        1.178782575        -159.7889747         7.995677631         103.0342244       0.07652202336        -34.34205969        0.6166983501        -138.8052429
      1.640672e+010        1.177755554        -159.9077424         7.969922796         102.9358457       0.07631042697        -34.49902672        0.6153694026        -138.9640383
      1.645671e+010        1.176730411        -160.0255559         7.944305004         102.8381209       0.07609918729         -34.6549529        0.6140481732        -139.1217043
       1.65067e+010          1.1757072        -160.1424236         7.918823572         102.7410441        0.0758883105        -34.80984525        0.6127346258        -139.2782496
      1.655669e+010        1.174685977        -160.2583541         7.893477812         102.6446097       0.07567780259        -34.96371074        0.6114287241        -139.4336829
      1.660668e+010        1.173666794        -160.3733559         7.868267038         102.5488117       0.07546766935        -35.11655626        0.6101304314        -139.5880128
      1.665667e+010        1.172649703        -160.4874374         7.843190556         102.4536447       0.07525791641        -35.26838868        0.6088397109        -139.7412477
      1.670666e+010        1.171634753        -160.6006068         7.818247674         102.3591028       0.07504854921        -35.41921478        0.6075565255        -139.8933962
      1.675665e+010        1.170621992        -160.7128724         7.793437697         102.2651807       0.07483957302         -35.5690413        0.6062808381        -140.0444666
      1.680664e+010        1.169611468        -160.8242423         7.768759926         102.1718726       0.07463099295        -35.71787493        0.6050126111        -140.1944673
      1.685663e+010        1.168603224        -160.9347246         7.744213664         102.0791731       0.07442281393         -35.8657223         0.603751807        -140.3434065
      1.690662e+010        1.167597306        -161.0443273         7.719798209         101.9870768       0.07421504075        -36.01258999         0.602498388        -140.4912924
      1.695661e+010        1.166593755        -161.1530584         7.695512859         101.8955782       0.07400767802        -36.15848451        0.6012523163        -140.6381332
       1.70066e+010        1.165592613        -161.2609256         7.671356914         101.8046721       0.07380073021        -36.30341233        0.6000135538        -140.7839369
      1.705659e+010        1.164593919        -161.3679369         7.647329668          101.714353       0.07359420163        -36.44737987        0.5987820625        -140.9287116
      1.710658e+010        1.163597712        -161.4740999         7.623430418         101.6246159       0.07338809645        -36.59039348        0.5975578041        -141.0724652
      1.715657e+010        1.162604029        -161.5794222         7.599658459         101.5354553       0.07318241868        -36.73245946        0.5963407402        -141.2152057
      1.720656e+010        1.161612905        -161.6839115         7.576013087         101.4468662       0.07297717222        -36.87358407        0.5951308325        -141.3569408
      1.725655e+010        1.160624377        -161.7875753         7.552493596         101.3588435        0.0727723608         -37.0137735        0.5939280425        -141.4976783
      1.730654e+010        1.159638476        -161.8904209         7.529099281         101.2713821       0.07256798804         -37.1530339        0.5927323317        -141.6374261
      1.735653e+010        1.158655236        -161.9924557         7.505829438         101.1844769       0.07236405739        -37.29137136        0.5915436613        -141.7761916
      1.740652e+010        1.157674687        -162.0936871         7.482683361         101.0981229       0.07216057222        -37.42879192        0.5903619929        -141.9139825
      1.745651e+010         1.15669686        -162.1941223         7.459660346         101.0123153       0.07195753575        -37.56530157        0.5891872877        -142.0508064
       1.75065e+010        1.155721784        -162.2937685          7.43675969         100.9270491       0.07175495106        -37.70090623        0.5880195071        -142.1866707
      1.755649e+010        1.154749486        -162.3926327          7.41398069         100.8423195       0.07155282114        -37.83561179        0.5868586123        -142.3215828
      1.760648e+010        1.153779994         -162.490722         7.391322643         100.7581216       0.07135114884        -37.96942408        0.5857045646        -142.4555502
      1.765647e+010        1.152813334        -162.5880433         7.368784848         100.6744508       0.07114993692        -38.10234889        0.5845573253          -142.58858
      1.770646e+010        1.151849529        -162.6846036         7.346366606         100.5913022       0.07094918799        -38.23439193        0.5834168557        -142.7206796
      1.775645e+010        1.150888606        -162.7804096         7.324067217         100.5086713       0.07074890459        -38.36555889        0.5822831171        -142.8518562
      1.780644e+010        1.149930585        -162.8754682         7.301885983         100.4265533       0.07054908913        -38.49585539        0.5811560708        -142.9821168
      1.785643e+010         1.14897549        -162.9697861         7.279822208         100.3449437       0.07034974391        -38.62528701        0.5800356783        -143.1114685
      1.790642e+010        1.148023341        -163.0633699         7.257875197          100.263838       0.07015087115        -38.75385928        0.5789219009        -143.2399184
      1.795641e+010        1.147074159        -163.1562262         7.236044256         100.1832315       0.06995247295        -38.88157766           0.5778147        -143.3674735
       1.80064e+010        1.146127963        -163.2483615         7.214328696           100.10312       0.06975455132         -39.0084476        0.5767140372        -143.4941405
      1.805639e+010        1.145184771        -163.3397823         7.192727824         100.0234989       0.06955710818        -39.13447447        0.5756198739        -143.6199264
      1.810638e+010        1.144244602        -163.4304949         7.171240954         99.94436383       0.06936014535        -39.25966359         0.574532172         -143.744838
      1.815637e+010        1.143307472        -163.5205058         7.149867399          99.8657105       0.06916366455        -39.38402025        0.5734508929         -143.868882
      1.820636e+010        1.142373398        -163.6098211         7.128606475         99.78753459       0.06896766743        -39.50754968        0.5723759986        -143.9920651
      1.825635e+010        1.141442394        -163.6984472         7.107457501         99.70983184       0.06877215555        -39.63025706        0.5713074508        -144.1143939
      1.830634e+010        1.140514475        -163.7863901         7.086419797         99.63259802       0.06857713038        -39.75214754        0.5702452115         -144.235875
      1.835633e+010        1.139589656         -163.873656         7.065492684         99.55582896        0.0683825933        -39.87322619        0.5691892427         -144.356515
      1.840632e+010        1.138667949        -163.9602509         7.044675488         99.47952052       0.06818854562        -39.99349807        0.5681395065        -144.4763202
      1.845631e+010        1.137749367        -164.0461807         7.023967537         99.40366859       0.06799498857        -40.11296817        0.5670959651        -144.5952971
       1.85063e+010        1.136833922        -164.1314515         7.003368159         99.32826912        0.0678019233        -40.23164144        0.5660585809        -144.7134521
      1.855629e+010        1.135921624        -164.2160691         6.982876686         99.25331807       0.06760935089        -40.34952278        0.5650273164        -144.8307915
      1.860628e+010        1.135012485        -164.3000393         6.962492454         99.17881146       0.06741727235        -40.46661705        0.5640021339        -144.9473215
      1.865627e+010        1.134106513        -164.3833679           6.9422148         99.10474533        0.0672256886        -40.58292906        0.5629829962        -145.0630484
      1.870626e+010        1.133203718        -164.4660605         6.922043063         99.03111579       0.06703460051        -40.69846358        0.5619698662        -145.1779782
      1.875625e+010         1.13230411        -164.5481229         6.901976586         98.95791895       0.06684400888        -40.81322533        0.5609627066        -145.2921172
      1.880624e+010        1.131407695        -164.6295605         6.882014715         98.88515098       0.06665391443        -40.92721898        0.5599614806        -145.4054714
      1.885623e+010        1.130514481         -164.710379         6.862156798         98.81280807       0.06646431784        -41.04044917        0.5589661512        -145.5180468
      1.890622e+010        1.129624476        -164.7905839         6.842402185         98.74088647        0.0662752197         -41.1529205        0.5579766819        -145.6298493
      1.895621e+010        1.128737685        -164.8701805         6.822750232         98.66938244       0.06608662055        -41.26463749         0.556993036        -145.7408849
       1.90062e+010        1.127854114        -164.9491743         6.803200293         98.59829228       0.06589852088        -41.37560467        0.5560151771        -145.8511593
      1.905619e+010        1.126973769        -165.0275706         6.783751731         98.52761236       0.06571092111        -41.48582648         0.555043069        -145.9606785
      1.910618e+010        1.126096654        -165.1053747         6.764403906         98.45733903        0.0655238216        -41.59530734        0.5540766755        -146.0694482
      1.915617e+010        1.125222774        -165.1825917         6.745156186         98.38746871       0.06533722267        -41.70405162        0.5531159606        -146.1774741
      1.920616e+010        1.124352132         -165.259227         6.726007939         98.31799786       0.06515112457        -41.81206367        0.5521608885        -146.2847618
      1.925615e+010        1.123484731        -165.3352856         6.706958536         98.24892294       0.06496552751        -41.91934776        0.5512114236        -146.3913171
      1.930614e+010        1.122620576        -165.4107726         6.688007354         98.18024049       0.06478043164        -42.02590815        0.5502675302        -146.4971454
      1.935613e+010        1.121759667         -165.485693         6.669153771         98.11194703       0.06459583707        -42.13174904        0.5493291731        -146.6022523
      1.940612e+010        1.120902008        -165.5600518         6.650397167         98.04403917       0.06441174385         -42.2368746         0.548396317        -146.7066433
      1.945611e+010        1.120047599         -165.633854         6.631736928          97.9765135       0.06422815199        -42.34128895         0.547468927        -146.8103238
       1.95061e+010        1.119196441        -165.7071044         6.613172442         97.90936669       0.06404506145        -42.44499619         0.546546968        -146.9132992
      1.955609e+010        1.118348537        -165.7798079         6.594703099          97.8425954       0.06386247214        -42.54800035        0.5456304055        -147.0155749
      1.960608e+010        1.117503885        -165.8519693         6.576328295         97.77619635       0.06368038395        -42.65030545        0.5447192048        -147.1171561
      1.965607e+010        1.116662486        -165.9235933         6.558047426         97.71016629       0.06349879669        -42.75191545        0.5438133316        -147.2180481
      1.970606e+010        1.115824339        -165.9946846         6.539859893         97.64450199       0.06331771017        -42.85283428        0.5429127516        -147.3182562
      1.975605e+010        1.114989444        -166.0652479         6.521765101         97.57920025       0.06313712413        -42.95306582         0.542017431        -147.4177854
      1.980604e+010          1.1141578        -166.1352878         6.503762458         97.51425792       0.06295703828        -43.05261393        0.5411273357         -147.516641
      1.985603e+010        1.113329405        -166.2048088         6.485851374         97.44967185       0.06277745229        -43.15148242         0.540242432         -147.614828
      1.990602e+010        1.112504257        -166.2738156         6.468031263         97.38543896       0.06259836581        -43.24967506        0.5393626866        -147.7123514
      1.995601e+010        1.111682355        -166.3423125         6.450301543         97.32155616       0.06241977842        -43.34719559         0.538488066        -147.8092163
        2.0006e+010        1.110863695         -166.410304         6.432661635         97.25802042       0.06224168969        -43.44404771         0.537618537        -147.9054276
      2.005599e+010        1.110048276        -166.4777946         6.415110964         97.19482873       0.06206409916        -43.54023508        0.5367540668        -148.0009902
      2.010598e+010        1.109236094        -166.5447884         6.397648956         97.13197809       0.06188700631        -43.63576134        0.5358946224         -148.095909
      2.015597e+010        1.108427146          -166.61129         6.380275043         97.06946556       0.06171041062        -43.73063005        0.5350401712        -148.1901889
      2.020596e+010        1.107621428        -166.6773035         6.362988659         97.00728821       0.06153431152        -43.82484479        0.5341906809        -148.2838345
      2.025595e+010        1.106818937        -166.7428331         6.345789242         96.94544315       0.06135870842        -43.91840907        0.5333461191        -148.3768508
      2.030594e+010        1.106019668        -166.8078831         6.328676233          96.8839275       0.06118360068        -44.01132637        0.5325064537        -148.4692424
      2.035593e+010        1.105223616        -166.8724576         6.311649077         96.82273842       0.06100898765        -44.10360013        0.5316716529        -148.5610139
      2.040592e+010        1.104430779        -166.9365607         6.294707222          96.7618731       0.06083486865        -44.19523377        0.5308416849        -148.6521701
      2.045591e+010        1.103641149        -167.0001965         6.277850118         96.70132876       0.06066124298        -44.28623066        0.5300165182        -148.7427154
       2.05059e+010        1.102854723        -167.0633689         6.261077222         96.64110263       0.06048810989        -44.37659415        0.5291961214        -148.8326546
      2.055589e+010        1.102071495        -167.1260821          6.24438799         96.58119198       0.06031546862        -44.46632755        0.5283804634         -148.921992
      2.060588e+010         1.10129146        -167.1883399         6.227781884          96.5215941        0.0601433184        -44.55543412        0.5275695131        -149.0107322
      2.065587e+010        1.100514611        -167.2501463          6.21125837         96.46230632        0.0599716584        -44.64391711        0.5267632398        -149.0988796
      2.070586e+010        1.099740943        -167.3115051         6.194816915         96.40332599        0.0598004878        -44.73177972        0.5259616128        -149.1864386
      2.075585e+010        1.098970449        -167.3724201         6.178456991         96.34465047       0.05962980575        -44.81902513        0.5251646017        -149.2734136
      2.080584e+010        1.098203123        -167.4328952         6.162178073         96.28627716       0.05945961137        -44.90565648        0.5243721762         -149.359809
      2.085583e+010        1.097438959        -167.4929342         6.145979639         96.22820348       0.05928990376        -44.99167688        0.5235843063         -149.445629
      2.090582e+010         1.09667795        -167.5525408         6.129861172         96.17042689       0.05912068199         -45.0770894        0.5228009621        -149.5308779
      2.095581e+010        1.095920088        -167.6117186         6.113822155         96.11294485       0.05895194515        -45.16189709        0.5220221138        -149.6155598
       2.10058e+010        1.095165368        -167.6704713         6.097862078         96.05575486       0.05878369226        -45.24610296        0.5212477319        -149.6996792
      2.105579e+010         1.09441378        -167.7288026         6.081980432         95.99885445       0.05861592236        -45.32970999        0.5204777871        -149.7832399
      2.110578e+010        1.093665319         -167.786716         6.066176712         95.94224115       0.05844863444        -45.41272112        0.5197122503        -149.8662463
      2.115577e+010        1.092919976        -167.8442151         6.050450417         95.88591254       0.05828182751        -45.49513928        0.5189510925        -149.9487023
      2.120576e+010        1.092177743        -167.9013033         6.034801048         95.82986622       0.05811550053        -45.57696735        0.5181942848        -150.0306121
      2.125575e+010        1.091438614        -167.9579843          6.01922811         95.77409978       0.05794965247        -45.65820819        0.5174417987        -150.1119796
      2.130574e+010        1.090702579        -168.0142615         6.003731112         95.71861089       0.05778428225        -45.73886463        0.5166936057        -150.1928089
      2.135573e+010         1.08996963        -168.0701382         5.988309564         95.66339719       0.05761938882        -45.81893945        0.5159496777        -150.2731039
      2.140572e+010         1.08923976        -168.1256178         5.972962983         95.60845637       0.05745497107        -45.89843543        0.5152099865        -150.3528684
      2.145571e+010        1.088512959        -168.1807038         5.957690885         95.55378614       0.05729102792         -45.9773553        0.5144745042        -150.4321065
       2.15057e+010        1.087789219        -168.2353994         5.942492792         95.49938423       0.05712755824        -46.05570178        0.5137432032        -150.5108219
      2.155569e+010        1.087068532         -168.289708          5.92736823         95.44524838        0.0569645609        -46.13347752        0.5130160559        -150.5890185
      2.160568e+010        1.086350888        -168.3436327         5.912316724         95.39137638       0.05680203477        -46.21068519         0.512293035        -150.6667001
      2.165567e+010        1.085636279        -168.3971768         5.897337807         95.33776601       0.05663997869        -46.28732741        0.5115741133        -150.7438703
      2.170566e+010        1.084924696        -168.4503436         5.882431012          95.2844151        0.0564783915        -46.36340676        0.5108592639        -150.8205331
      2.175565e+010         1.08421613        -168.5031361         5.867595877         95.23132146       0.05631727202        -46.43892581        0.5101484599         -150.896692
      2.180564e+010         1.08351057        -168.5555576         5.852831943         95.17848298       0.05615661906        -46.51388709        0.5094416746        -150.9723507
      2.185563e+010        1.082808009        -168.6076111         5.838138752         95.12589751       0.05599643144        -46.58829311        0.5087388818        -151.0475129
      2.190562e+010        1.082108436        -168.6592997         5.823515853         95.07356297       0.05583670794        -46.66214635         0.508040055        -151.1221821
      2.195561e+010        1.081411843        -168.7106264         5.808962793         95.02147726       0.05567744735        -46.73544926        0.5073451682         -151.196362
       2.20056e+010        1.080718218        -168.7615944         5.794479128         94.96963834       0.05551864844        -46.80820427        0.5066541954         -151.270056
      2.205559e+010        1.080027554        -168.8122065         5.780064412         94.91804415       0.05536030998        -46.88041377        0.5059671109        -151.3432678
      2.210558e+010         1.07933984        -168.8624657         5.765718205         94.86669267       0.05520243072        -46.95208014        0.5052838891        -151.4160007
      2.215557e+010        1.078655066         -168.912375          5.75144007         94.81558191       0.05504500943        -47.02320571        0.5046045047        -151.4882583
      2.220556e+010        1.077973222        -168.9619373         5.737229571         94.76470987       0.05488804484        -47.09379281        0.5039289323         -151.560044
      2.225555e+010        1.077294299        -169.0111555         5.723086277          94.7140746       0.05473153569        -47.16384372        0.5032571469        -151.6313611
      2.230554e+010        1.076618286        -169.0600323         5.709009759         94.66367414        0.0545754807        -47.23336072        0.5025891237        -151.7022131
      2.235553e+010        1.075945173        -169.1085707         5.694999592         94.61350658       0.05441987861        -47.30234604        0.5019248378        -151.7726033
      2.240552e+010         1.07527495        -169.1567735         5.681055353            94.56357       0.05426472812         -47.3708019        0.5012642648         -151.842535
      2.245551e+010        1.074607608        -169.2046434         5.667176622         94.51386252       0.05411002795        -47.43873049        0.5006073803        -151.9120116
       2.25055e+010        1.073943135        -169.2521831         5.653362982         94.46438225        0.0539557768        -47.50613396          0.49995416        -151.9810362
      2.255549e+010        1.073281521        -169.2993954         5.639614021         94.41512735       0.05380197338        -47.57301446        0.4993045799        -152.0496121
      2.260548e+010        1.072622756         -169.346283         5.625929326         94.36609598       0.05364861637        -47.63937411        0.4986586161        -152.1177425
      2.265547e+010         1.07196683        -169.3928485          5.61230849         94.31728632       0.05349570447        -47.70521498        0.4980162449        -152.1854307
      2.270546e+010        1.071313732        -169.4390946         5.598751109         94.26869658       0.05334323637        -47.77053915        0.4973774428        -152.2526797
      2.275545e+010        1.070663451        -169.4850239         5.585256779         94.22032495       0.05319121075        -47.83534866        0.4967421863        -152.3194927
      2.280544e+010        1.070015977        -169.5306391         5.571825101         94.17216968       0.05303962628        -47.89964552        0.4961104523        -152.3858728
      2.285543e+010          1.0693713        -169.5759426          5.55845568         94.12422902       0.05288848164        -47.96343173        0.4954822176         -152.451823
      2.290542e+010        1.068729409        -169.6209371          5.54514812         94.07650123       0.05273777551        -48.02670925        0.4948574594        -152.5173466
      2.295541e+010        1.068090294         -169.665625         5.531902032         94.02898459       0.05258750654        -48.08948002        0.4942361549        -152.5824463
       2.30054e+010        1.067453942        -169.7100088         5.518717028         93.98167741       0.05243767342        -48.15174598        0.4936182815        -152.6471254
      2.305539e+010        1.066820345        -169.7540911         5.505592721         93.93457799       0.05228827479        -48.21350902        0.4930038168        -152.7113867
      2.310538e+010        1.066189491        -169.7978743          5.49252873         93.88768467       0.05213930933        -48.27477101        0.4923927386        -152.7752332
      2.315537e+010        1.065561369        -169.8413608         5.479524674         93.84099579       0.05199077569        -48.33553381        0.4917850247        -152.8386679
      2.320536e+010        1.064935969         -169.884553         5.466580178         93.79450972       0.05184267253        -48.39579924        0.4911806532        -152.9016936
      2.325535e+010         1.06431328        -169.9274534         5.453694865         93.74822484       0.05169499851        -48.45556912        0.4905796022        -152.9643133
      2.330534e+010        1.063693291        -169.9700642         5.440868365         93.70213953       0.05154775228        -48.51484523        0.4899818501        -153.0265297
      2.335533e+010        1.063075991        -170.0123878         5.428100308          93.6562522       0.05140093248        -48.57362933        0.4893873755        -153.0883458
      2.340532e+010         1.06246137        -170.0544266         5.415390329         93.61056128       0.05125453779        -48.63192316         0.488796157        -153.1497644
      2.345531e+010        1.061849417        -170.0961828         5.402738062         93.56506521       0.05110856684        -48.68972844        0.4882081734        -153.2107881
       2.35053e+010         1.06124012        -170.1376587         5.390143149         93.51976243       0.05096301829        -48.74704687        0.4876234036        -153.2714199
      2.355529e+010        1.060633469        -170.1788565         5.377605228         93.47465142       0.05081789079        -48.80388013        0.4870418268        -153.3316625
      2.360528e+010        1.060029453        -170.2197786         5.365123946         93.42973065       0.05067318298        -48.86022986        0.4864634222        -153.3915185
      2.365527e+010        1.059428061        -170.2604271         5.352698948         93.38499862       0.05052889353        -48.91609771        0.4858881693        -153.4509907
      2.370526e+010        1.058829283        -170.3008042         5.340329884         93.34045385       0.05038502107        -48.97148527        0.4853160476        -153.5100818
      2.375525e+010        1.058233106        -170.3409121         5.328016405         93.29609485       0.05024156427        -49.02639415        0.4847470367        -153.5687944
      2.380524e+010        1.057639522         -170.380753         5.315758165         93.25192016       0.05009852177        -49.08082591        0.4841811166        -153.6271311
      2.385523e+010        1.057048518        -170.4203289         5.303554822         93.20792833       0.04995589222         -49.1347821        0.4836182672        -153.6850946
      2.390522e+010        1.056460083         -170.459642         5.291406035         93.16411793       0.04981367428        -49.18826426        0.4830584687        -153.7426875
      2.395521e+010        1.055874208        -170.4986944         5.279311464         93.12048754       0.04967186659        -49.24127388        0.4825017012        -153.7999124
       2.40052e+010         1.05529088        -170.5374881         5.267270775         93.07703574       0.04953046782        -49.29381245        0.4819479454        -153.8567717
      2.405519e+010         1.05471009        -170.5760253         5.255283633         93.03376115       0.04938947663        -49.34588145        0.4813971816        -153.9132681
      2.410518e+010        1.054131826        -170.6143079         5.243349709         92.99066237       0.04924889165        -49.39748232        0.4808493906         -153.969404
      2.415517e+010        1.053556077         -170.652338         5.231468672         92.94773804       0.04910871157        -49.44861648        0.4803045533        -154.0251819
      2.420516e+010        1.052982832        -170.6901176         5.219640198          92.9049868       0.04896893503        -49.49928536        0.4797626506        -154.0806044
      2.425515e+010        1.052412082        -170.7276486         5.207863961         92.86240731        0.0488295607        -49.54949033        0.4792236636        -154.1356738
      2.430514e+010        1.051843814        -170.7649331         5.196139641         92.81999824       0.04869058724        -49.59923276        0.4786875735        -154.1903926
      2.435513e+010        1.051278018        -170.8019729         5.184466918         92.77775825       0.04855201332          -49.648514        0.4781543618        -154.2447632
      2.440512e+010        1.050714683          -170.83877         5.172845476         92.73568606       0.04841383761        -49.69733539        0.4776240099         -154.298788
      2.445511e+010        1.050153798        -170.8753264         5.161274999         92.69378036       0.04827605877        -49.74569823        0.4770964996        -154.3524693
       2.45051e+010        1.049595353        -170.9116438         5.149755175         92.65203986       0.04813867548        -49.79360382        0.4765718125        -154.4058096
      2.455509e+010        1.049039337        -170.9477242         5.138285695          92.6104633       0.04800168642        -49.84105343        0.4760499306        -154.4588112
      2.460508e+010        1.048485739        -170.9835695          5.12686625         92.56904942       0.04786509026        -49.88804831        0.4755308359        -154.5114763
      2.465507e+010        1.047934548        -171.0191814         5.115496535         92.52779696       0.04772888569        -49.93458971        0.4750145107        -154.5638073
      2.470506e+010        1.047385754        -171.0545618         5.104176247          92.4867047       0.04759307138        -49.98067883        0.4745009371        -154.6158064
      2.475505e+010        1.046839346        -171.0897126         5.092905084          92.4457714       0.04745764602        -50.02631688        0.4739900977         -154.667476
      2.480504e+010        1.046295313        -171.1246355         5.081682747         92.40499585        0.0473226083        -50.07150504         0.473481975        -154.7188183
      2.485503e+010        1.045753645        -171.1593322          5.07050894         92.36437684       0.04718795692        -50.11624447        0.4729765516        -154.7698354
      2.490502e+010         1.04521433        -171.1938046         5.059383368         92.32391319       0.04705369056        -50.16053631        0.4724738105        -154.8205296
      2.495501e+010        1.044677359        -171.2280544         5.048305737         92.28360372       0.04691980794         -50.2043817        0.4719737344        -154.8709032
        2.5005e+010        1.044142721        -171.2620833         5.037275759         92.24344724       0.04678630774        -50.24778173        0.4714763065        -154.9209582
      2.505499e+010        1.043610404        -171.2958931         5.026293145         92.20344261       0.04665318868        -50.29073751        0.4709815099        -154.9706968
      2.510498e+010        1.043080399        -171.3294854         5.015357607         92.16358867       0.04652044945         -50.3332501         0.470489328        -155.0201212
      2.515497e+010        1.042552696        -171.3628619         5.004468863         92.12388428       0.04638808879        -50.37532057        0.4699997441        -155.0692335
      2.520496e+010        1.042027283        -171.3960243          4.99362663         92.08432832        0.0462561054        -50.41694994        0.4695127419        -155.1180358
      2.525495e+010         1.04150415        -171.4289742         4.982830628         92.04491966       0.04612449799        -50.45813925        0.4690283048        -155.1665302
      2.530494e+010        1.040983286        -171.4617133         4.972080579         92.00565721       0.04599326531        -50.49888949        0.4685464168        -155.2147187
      2.535493e+010        1.040464682        -171.4942432         4.961376207         91.96653985       0.04586240606        -50.53920166        0.4680670618        -155.2626034
      2.540492e+010        1.039948327        -171.5265655         4.950717238          91.9275665       0.04573191899        -50.57907671        0.4675902237        -155.3101864
      2.545491e+010         1.03943421        -171.5586818           4.9401034         91.88873609       0.04560180282        -50.61851562        0.4671158866        -155.3574697
       2.55049e+010        1.038922322        -171.5905937         4.929534422         91.85004753       0.04547205631         -50.6575193        0.4666440349        -155.4044553
      2.555489e+010        1.038412651        -171.6223028         4.919010037         91.81149979       0.04534267818        -50.69608869        0.4661746528        -155.4511451
      2.560488e+010        1.037905188        -171.6538105         4.908529979          91.7730918       0.04521366719        -50.73422468        0.4657077248        -155.4975412
      2.565487e+010        1.037399922        -171.6851185         4.898093983         91.73482252        0.0450850221        -50.77192816        0.4652432356        -155.5436456
      2.570486e+010        1.036896843        -171.7162282         4.887701787         91.69669093       0.04495674165            -50.8092        0.4647811698        -155.5894601
      2.575485e+010        1.036395941        -171.7471413          4.87735313           91.658696        0.0448288246        -50.84604106        0.4643215121        -155.6349867
      2.580484e+010        1.035897206        -171.7778591         4.867047754         91.62083672       0.04470126973        -50.88245217        0.4638642476        -155.6802273
      2.585483e+010        1.035400628        -171.8083832         4.856785402         91.58311208        0.0445740758        -50.91843415        0.4634093613        -155.7251839
      2.590482e+010        1.034906196        -171.8387149         4.846565819          91.5455211       0.04444724158        -50.95398781        0.4629568382        -155.7698582
      2.595481e+010        1.034413901        -171.8688559         4.836388753         91.50806278       0.04432076586        -50.98911394        0.4625066637        -155.8142523
       2.60048e+010        1.033923732        -171.8988076         4.826253951         91.47073615       0.04419464741        -51.02381331         0.462058823        -155.8583678
      2.605479e+010         1.03343568        -171.9285712         4.816161165         91.43354025       0.04406888503        -51.05808667        0.4616133016        -155.9022068
      2.610478e+010        1.032949734        -171.9581484         4.806110147          91.3964741        0.0439434775        -51.09193478        0.4611700851        -155.9457709
      2.615477e+010        1.032465885        -171.9875405         4.796100651         91.35953676       0.04381842363        -51.12535835        0.4607291591        -155.9890621
      2.620476e+010        1.031984123        -172.0167489         4.786132432          91.3227273        0.0436937222         -51.1583581        0.4602905095        -156.0320821
      2.625475e+010        1.031504437        -172.0457749          4.77620525         91.28604476       0.04356937204        -51.19093472         0.459854122        -156.0748327
      2.630474e+010        1.031026818          -172.07462         4.766318862         91.24948824       0.04344537195        -51.22308889        0.4594199826        -156.1173157
      2.635473e+010        1.030551257        -172.1032855         4.756473031          91.2130568       0.04332172075        -51.25482127        0.4589880774        -156.1595328
      2.640472e+010        1.030077743        -172.1317727         4.746667518         91.17674955       0.04319841726        -51.28613252        0.4585583927        -156.2014858
      2.645471e+010        1.029606267        -172.1600831          4.73690209         91.14056557        0.0430754603        -51.31702326        0.4581309145        -156.2431764
       2.65047e+010        1.029136819        -172.1882178         4.727176511         91.10450398       0.04295284871        -51.34749412        0.4577056294        -156.2846064
      2.655469e+010         1.02866939        -172.2161783          4.71749055         91.06856389       0.04283058131         -51.3775457        0.4572825238        -156.3257774
      2.660468e+010        1.028203969        -172.2439658         4.707843976         91.03274442       0.04270865696        -51.40717859        0.4568615843        -156.3666911
      2.665467e+010        1.027740548        -172.2715816         4.698236561          90.9970447        0.0425870745        -51.43639335        0.4564427974        -156.4073493
      2.670466e+010        1.027279117         -172.299027         4.688668077         90.96146387       0.04246583278        -51.46519056        0.4560261501        -156.4477535
      2.675465e+010        1.026819665        -172.3263033         4.679138299         90.92600107       0.04234493066        -51.49357075         0.455611629        -156.4879055
      2.680464e+010        1.026362185        -172.3534116         4.669647002         90.89065545       0.04222436699        -51.52153445        0.4551992213        -156.5278068
      2.685463e+010        1.025906666        -172.3803534         4.660193966         90.85542618       0.04210414064        -51.54908217        0.4547889139        -156.5674592
      2.690462e+010        1.025453098        -172.4071297         4.650778968         90.82031243       0.04198425049        -51.57621443        0.4543806939        -156.6068641
      2.695461e+010        1.025001474        -172.4337419          4.64140179         90.78531336       0.04186469541        -51.60293169        0.4539745487        -156.6460233
       2.70046e+010        1.024551783         -172.460191         4.632062214         90.75042816       0.04174547429        -51.62923444        0.4535704654        -156.6849383
      2.705459e+010        1.024104015        -172.4864785         4.622760023         90.71565601       0.04162658601        -51.65512313        0.4531684316        -156.7236107
      2.710458e+010        1.023658163        -172.5126053         4.613495005         90.68099612       0.04150802946         -51.6805982        0.4527684347        -156.7620421
      2.715457e+010        1.023214216        -172.5385728         4.604266944         90.64644768       0.04138980354        -51.70566008        0.4523704624        -156.8002339
      2.720456e+010        1.022772166         -172.564382         4.595075631         90.61200991       0.04127190715        -51.73030918        0.4519745022        -156.8381879
      2.725455e+010        1.022332002        -172.5900342         4.585920854         90.57768201       0.04115433921         -51.7545459         0.451580542        -156.8759054
      2.730454e+010        1.021893717        -172.6155304         4.576802406         90.54346322       0.04103709863        -51.77837063        0.4511885696         -156.913388
      2.735453e+010        1.021457302        -172.6408719         4.567720079         90.50935277       0.04092018432        -51.80178375         0.450798573        -156.9506373
      2.740452e+010        1.021022746        -172.6660598         4.558673668         90.47534988       0.04080359521         -51.8247856        0.4504105402        -156.9876546
      2.745451e+010        1.020590041        -172.6910952         4.549662969         90.44145381       0.04068733024        -51.84737652        0.4500244594        -157.0244416
       2.75045e+010        1.020159179        -172.7159791         4.540687778          90.4076638       0.04057138833        -51.86955686        0.4496403186        -157.0609997
      2.755449e+010         1.01973015        -172.7407128         4.531747895         90.37397911       0.04045576842        -51.89132693        0.4492581062        -157.0973303
      2.760448e+010        1.019302946        -172.7652973          4.52284312           90.340399       0.04034046947        -51.91268702        0.4488778107        -157.1334349
      2.765447e+010        1.018877557        -172.7897336         4.513973255         90.30692274       0.04022549042        -51.93363743        0.4484994203        -157.1693149
      2.770446e+010        1.018453975        -172.8140229         4.505138101          90.2735496       0.04011083023        -51.95417843        0.4481229237        -157.2049718
      2.775445e+010        1.018032191        -172.8381663         4.496337465         90.24027887       0.03999648787        -51.97431028        0.4477483095         -157.240407
      2.780444e+010        1.017612197        -172.8621647         4.487571151         90.20710984        0.0398824623        -51.99403323        0.4473755663        -157.2756219
      2.785443e+010        1.017193984        -172.8860193         4.478838966         90.17404179       0.03976875249        -52.01334751         0.447004683        -157.3106179
      2.790442e+010        1.016777542         -172.909731         4.470140719         90.14107402       0.03965535743        -52.03225335        0.4466356485        -157.3453963
      2.795441e+010        1.016362864         -172.933301          4.46147622         90.10820585       0.03954227609        -52.05075095        0.4462684515        -157.3799587
       2.80044e+010        1.015949941        -172.9567301          4.45284528         90.07543658       0.03942950747         -52.0688405        0.4459030812        -157.4143063
      2.805439e+010        1.015538765        -172.9800195         4.444247711         90.04276552       0.03931705056        -52.08652219        0.4455395267        -157.4484404
      2.810438e+010        1.015129327        -173.0031701         4.435683327         90.01019201       0.03920490437        -52.10379618        0.4451777771        -157.4823625
      2.815437e+010        1.014721618         -173.026183         4.427151943         89.97771537        0.0390930679        -52.12066262        0.4448178217        -157.5160739
      2.820436e+010         1.01431563        -173.0490591         4.418653375         89.94533494       0.03898154016        -52.13712167        0.4444596498        -157.5495759
      2.825435e+010        1.013911355        -173.0717994         4.410187442         89.91305005       0.03887032016        -52.15317343        0.4441032507        -157.5828698
      2.830434e+010        1.013508785        -173.0944049         4.401753961         89.88086005       0.03875940694        -52.16881804        0.4437486141        -157.6159569
      2.835433e+010        1.013107911        -173.1168765         4.393352753         89.84876429       0.03864879952        -52.18405558        0.4433957294        -157.6488385
      2.840432e+010        1.012708725        -173.1392153         4.384983639         89.81676213       0.03853849694        -52.19888615        0.4430445862         -157.681516
      2.845431e+010        1.012311218         -173.161422         4.376646442         89.78485292       0.03842849822        -52.21330983        0.4426951742        -157.7139906
       2.85043e+010        1.011915384        -173.1834978         4.368340987         89.75303604       0.03831880243        -52.22732667        0.4423474833        -157.7462635
      2.855429e+010        1.011521212        -173.2054434         4.360067097         89.72131086       0.03820940861        -52.24093673        0.4420015033         -157.778336
      2.860428e+010        1.011128697        -173.2272599         4.351824599         89.68967676       0.03810031581        -52.25414004         0.441657224        -157.8102095
      2.865427e+010        1.010737828        -173.2489482         4.343613321         89.65813312       0.03799152309        -52.26693662        0.4413146354         -157.841885
      2.870426e+010        1.010348599        -173.2705091         4.335433091         89.62667932       0.03788302953        -52.27932649        0.4409737277        -157.8733639
      2.875425e+010        1.009961001        -173.2919435         4.327283739         89.59531476        0.0377748342        -52.29130965        0.4406344909        -157.9046474
      2.880424e+010        1.009575026        -173.3132524         4.319165097         89.56403884       0.03766693617        -52.30288608        0.4402969152        -157.9357366
      2.885423e+010        1.009190667        -173.3344367         4.311076996         89.53285096       0.03755933453        -52.31405575         0.439960991        -157.9666329
      2.890422e+010        1.008807916        -173.3554972          4.30301927         89.50175052       0.03745202837        -52.32481863        0.4396267084        -157.9973373
      2.895421e+010        1.008426765        -173.3764347         4.294991753         89.47073696       0.03734501678        -52.33517466         0.439294058        -158.0278511
       2.90042e+010        1.008047205        -173.3972502         4.286994281         89.43980966       0.03723829887        -52.34512377        0.4389630302        -158.0581755
      2.905419e+010         1.00766923        -173.4179445         4.279026691         89.40896808       0.03713187373         -52.3546659        0.4386336155        -158.0883116
      2.910418e+010        1.007292832        -173.4385185          4.27108882         89.37821162       0.03702574048        -52.36380094        0.4383058045        -158.1182606
      2.915417e+010        1.006918002         -173.458973         4.263180507         89.34753972       0.03691989824         -52.3725288        0.4379795879        -158.1480237
      2.920416e+010        1.006544733        -173.4793088         4.255301594         89.31695182       0.03681434613        -52.38084936        0.4376549564        -158.1776019
      2.925415e+010        1.006173019        -173.4995268          4.24745192         89.28644736       0.03670908328         -52.3887625        0.4373319009        -158.2069965
      2.930414e+010         1.00580285        -173.5196278         4.239631328         89.25602579       0.03660410882        -52.39626807        0.4370104121        -158.2362085
      2.935413e+010         1.00543422        -173.5396126         4.231839662         89.22568655       0.03649942189        -52.40336593        0.4366904811        -158.2652391
      2.940412e+010        1.005067121         -173.559482         4.224076765         89.19542911       0.03639502164         -52.4100559        0.4363720987        -158.2940894
      2.945411e+010        1.004701546        -173.5792368         4.216342484         89.16525291       0.03629090721        -52.41633782        0.4360552561        -158.3227604
       2.95041e+010        1.004337487        -173.5988778         4.208636664         89.13515743       0.03618707776        -52.42221149        0.4357399443        -158.3512534
      2.955409e+010        1.003974936        -173.6184058         4.200959154         89.10514213       0.03608353245        -52.42767671        0.4354261546        -158.3795693
      2.960408e+010        1.003613888        -173.6378216         4.193309802         89.07520649       0.03598027046        -52.43273327        0.4351138781        -158.4077094
      2.965407e+010        1.003254333        -173.6571259         4.185688457         89.04534998       0.03587729094        -52.43738094        0.4348031062        -158.4356745
      2.970406e+010        1.002896265        -173.6763196         4.178094971         89.01557208       0.03577459308        -52.44161949        0.4344938302        -158.4634658
      2.975405e+010        1.002539677        -173.6954034         4.170529194         88.98587228       0.03567217607        -52.44544866        0.4341860415        -158.4910844
      2.980404e+010        1.002184562         -173.714378          4.16299098         88.95625007       0.03557003908         -52.4488682        0.4338797316        -158.5185313
      2.985403e+010        1.001830912        -173.7332442         4.155480183         88.92670494       0.03546818132        -52.45187783        0.4335748921        -158.5458075
      2.990402e+010         1.00147872        -173.7520028         4.147996655         88.89723639       0.03536660199        -52.45447726        0.4332715145        -158.5729142
      2.995401e+010         1.00112798        -173.7706544         4.140540255         88.86784392       0.03526530028         -52.4566662        0.4329695906        -158.5998522
        3.0004e+010        1.000778683        -173.7891999         4.133110837         88.83852704       0.03516427541        -52.45844434        0.4326691119        -158.6266226
      3.005399e+010        1.000430823        -173.8076399          4.12570826         88.80928525        0.0350635266        -52.45981135        0.4323700702        -158.6532265
      3.010398e+010        1.000084394        -173.8259752         4.118332381         88.78011807       0.03496305307         -52.4607669        0.4320724575        -158.6796649
      3.015397e+010       0.9997393876        -173.8442064         4.110983062         88.75102502       0.03486285404        -52.46131064        0.4317762655        -158.7059387
      3.020396e+010       0.9993957975        -173.8623344         4.103660161         88.72200563       0.03476292875        -52.46144223        0.4314814863        -158.7320489
      3.025395e+010       0.9990536168        -173.8803597          4.09636354          88.6930594       0.03466327644        -52.46116128        0.4311881117        -158.7579966
      3.030394e+010       0.9987128386        -173.8982832         4.089093062         88.66418588       0.03456389634        -52.46046741        0.4308961339        -158.7837826
      3.035393e+010       0.9983734561        -173.9161054         4.081848589         88.63538459       0.03446478771        -52.45936024        0.4306055449         -158.809408
      3.040392e+010       0.9980354625        -173.9338271         4.074629986         88.60665508        0.0343659498        -52.45783936        0.4303163369        -158.8348738
      3.045391e+010       0.9976988511        -173.9514489         4.067437118         88.57799688       0.03426738188        -52.45590435        0.4300285021        -158.8601808
       3.05039e+010       0.9973636153        -173.9689716          4.06026985         88.54940954        0.0341690832        -52.45355478        0.4297420327        -158.8853301
      3.055389e+010       0.9970297482        -173.9863958         4.053128049          88.5208926       0.03407105303        -52.45079022        0.4294569212        -158.9103225
      3.060388e+010       0.9966972434        -174.0037221         4.046011583         88.49244562       0.03397329066         -52.4476102        0.4291731597        -158.9351591
      3.065387e+010       0.9963660941        -174.0209513         4.038920321         88.46406815       0.03387579536        -52.44401428        0.4288907409        -158.9598407
      3.070386e+010       0.9960362939        -174.0380839         4.031854132         88.43575975       0.03377856642        -52.44000196        0.4286096571        -158.9843683
      3.075385e+010       0.9957078362        -174.0551207         4.024812886         88.40751997       0.03368160314        -52.43557277        0.4283299008        -159.0087428
      3.080384e+010       0.9953807145        -174.0720623         4.017796455          88.3793484        0.0335849048        -52.43072621        0.4280514647        -159.0329651
      3.085383e+010       0.9950549224        -174.0889093         4.010804709         88.35124458       0.03348847072        -52.42546177        0.4277743413         -159.057036
      3.090382e+010       0.9947304533        -174.1056623         4.003837523          88.3232081       0.03339230019        -52.41977892        0.4274985233        -159.0809566
      3.095381e+010        0.994407301         -174.122322          3.99689477         88.29523853       0.03329639254        -52.41367713        0.4272240035        -159.1047277
       3.10038e+010        0.994085459        -174.1388891         3.989976323         88.26733546       0.03320074709        -52.40715586        0.4269507746        -159.1283501
      3.105379e+010        0.993764921         -174.155364          3.98308206         88.23949845       0.03310536315        -52.40021455        0.4266788295        -159.1518248
      3.110378e+010       0.9934456808        -174.1717475         3.976211855          88.2117271       0.03301024006        -52.39285263        0.4264081609        -159.1751526
      3.115377e+010        0.993127732        -174.1880401         3.969365586           88.184021       0.03291537715        -52.38506953        0.4261387619        -159.1983344
      3.120376e+010       0.9928110684        -174.2042425          3.96254313         88.15637973       0.03282077376        -52.37686465        0.4258706254        -159.2213711
      3.125375e+010       0.9924956838        -174.2203552         3.955744366         88.12880289       0.03272642924        -52.36823739        0.4256037444        -159.2442634
      3.130374e+010       0.9921815721        -174.2363789         3.948969174         88.10129009       0.03263234294        -52.35918714         0.425338112        -159.2670124
      3.135373e+010       0.9918687271        -174.2523142         3.942217433         88.07384091       0.03253851421        -52.34971328        0.4250737212        -159.2896187
      3.140372e+010       0.9915571427        -174.2681615         3.935489024         88.04645497       0.03244494242        -52.33981516        0.4248105653        -159.3120832
      3.145371e+010       0.9912468129        -174.2839216         3.928783829         88.01913188       0.03235162694        -52.32949214        0.4245486374        -159.3344069
       3.15037e+010       0.9909377315        -174.2995949         3.922101731         87.99187123       0.03225856712        -52.31874356        0.4242879308        -159.3565904
      3.155369e+010       0.9906298927        -174.3151821         3.915442613         87.96467265       0.03216576236        -52.30756876        0.4240284387        -159.3786346
      3.160368e+010       0.9903232903        -174.3306837         3.908806358         87.93753576       0.03207321204        -52.29596704        0.4237701546        -159.4005403
      3.165367e+010       0.9900179185        -174.3461004         3.902192852         87.91046016       0.03198091554        -52.28393772        0.4235130717        -159.4223084
      3.170366e+010       0.9897137714        -174.3614325          3.89560198         87.88344549       0.03188887225        -52.27148009        0.4232571836        -159.4439396
      3.175365e+010        0.989410843        -174.3766808         3.889033628         87.85649137       0.03179708158        -52.25859345        0.4230024836        -159.4654348
      3.180364e+010       0.9891091275        -174.3918457         3.882487682         87.82959743       0.03170554292        -52.24527705        0.4227489653        -159.4867946
      3.185363e+010       0.9888086192        -174.4069278         3.875964032         87.80276329        0.0316142557        -52.23153017        0.4224966223          -159.50802
      3.190362e+010       0.9885093121        -174.4219277         3.869462565         87.77598859       0.03152321931        -52.21735205        0.4222454481        -159.5291117
      3.195361e+010       0.9882112005        -174.4368458          3.86298317         87.74927298       0.03143243319        -52.20274194        0.4219954364        -159.5500704
       3.20036e+010       0.9879142788        -174.4516828         3.856525737         87.72261608       0.03134189675        -52.18769907        0.4217465809         -159.570897
      3.205359e+010       0.9876185412        -174.4664391         3.850090157         87.69601754       0.03125160943        -52.17222265        0.4214988752        -159.5915921
      3.210358e+010        0.987323982        -174.4811153         3.843676321           87.669477       0.03116157065         -52.1563119        0.4212523132        -159.6121567
      3.215357e+010       0.9870305956        -174.4957118         3.837284121         87.64299411       0.03107177987          -52.139966        0.4210068887        -159.6325913
      3.220356e+010       0.9867383764        -174.5102293         3.830913449         87.61656853       0.03098223652        -52.12318414        0.4207625955        -159.6528968
      3.225355e+010       0.9864473188        -174.5246682         3.824564199          87.5901999       0.03089294006         -52.1059655        0.4205194276        -159.6730739
      3.230354e+010       0.9861574172         -174.539029         3.818236265         87.56388788       0.03080388995        -52.08830924        0.4202773787        -159.6931234
      3.235353e+010       0.9858686662        -174.5533123         3.811929541         87.53763213       0.03071508563        -52.07021452         0.420036443        -159.7130459
      3.240352e+010       0.9855810602        -174.5675185         3.805643923         87.51143231       0.03062652659        -52.05168046        0.4197966144        -159.7328422
      3.245351e+010       0.9852945938        -174.5816481         3.799379307         87.48528808       0.03053821228        -52.03270622         0.419557887        -159.7525131
       3.25035e+010       0.9850092615        -174.5957016          3.79313559         87.45919911       0.03045014219        -52.01329089        0.4193202548        -159.7720592
      3.255349e+010        0.984725058        -174.6096796         3.786912668         87.43316506       0.03036231581         -51.9934336        0.4190837121        -159.7914813
      3.260348e+010       0.9844419778        -174.6235825          3.78071044         87.40718561       0.03027473261        -51.97313344        0.4188482528        -159.8107801
      3.265347e+010       0.9841600156        -174.6374108         3.774528805         87.38126043       0.03018739208         -51.9523895        0.4186138714        -159.8299563
      3.270346e+010       0.9838791661        -174.6511649         3.768367661         87.35538919       0.03010029373        -51.93120086         0.418380562        -159.8490105
      3.275345e+010        0.983599424        -174.6648454         3.762226909         87.32957158       0.03001343706        -51.90956657        0.4181483188        -159.8679435
      3.280344e+010        0.983320784        -174.6784527         3.756106448         87.30380727       0.02992682158        -51.88748571        0.4179171363         -159.886756
      3.285343e+010       0.9830432409        -174.6919873         3.750006182         87.27809594       0.02984044679         -51.8649573        0.4176870087        -159.9054486
      3.290342e+010       0.9827667895        -174.7054497          3.74392601         87.25243729       0.02975431221        -51.84198039        0.4174579304        -159.9240221
      3.295341e+010       0.9824914246        -174.7188402         3.737865836           87.226831       0.02966841738          -51.818554         0.417229896         -159.942477
       3.30034e+010        0.982217141        -174.7321594         3.731825562         87.20127676        0.0295827618        -51.79467714        0.4170028998        -159.9608142
      3.305339e+010       0.9819439336        -174.7454078         3.725805092         87.17577426       0.02949734503        -51.77034881        0.4167769364        -159.9790341
      3.310338e+010       0.9816717974        -174.7585857          3.71980433         87.15032319       0.02941216659        -51.74556801        0.4165520002        -159.9971377
      3.315337e+010       0.9814007272        -174.7716936         3.713823182         87.12492326       0.02932722604        -51.72033372        0.4163280859        -160.0151253
      3.320336e+010       0.9811307181         -174.784732         3.707861552         87.09957416       0.02924252291         -51.6946449        0.4161051881        -160.0329978
      3.325335e+010       0.9808617649        -174.7977013         3.701919347          87.0742756       0.02915805676        -51.66850052        0.4158833014        -160.0507558
      3.330334e+010       0.9805938627         -174.810602         3.695996473         87.04902726       0.02907382715        -51.64189953        0.4156624205        -160.0683999
      3.335333e+010       0.9803270065        -174.8234344         3.690092837         87.02382888       0.02898983364        -51.61484087        0.4154425401        -160.0859307
      3.340332e+010       0.9800611915        -174.8361991         3.684208347         86.99868014        0.0289060758        -51.58732346         0.415223655         -160.103349
      3.345331e+010       0.9797964126        -174.8488963         3.678342912         86.97358076       0.02882255321        -51.55934623        0.4150057598        -160.1206552
       3.35033e+010        0.979532665        -174.8615267         3.672496439         86.94853045       0.02873926544        -51.53090809        0.4147888496        -160.1378502
      3.355329e+010       0.9792699439        -174.8740905          3.66666884         86.92352893       0.02865621208        -51.50200794         0.414572919        -160.1549344
      3.360328e+010       0.9790082443        -174.8865882         3.660860023         86.89857592       0.02857339271        -51.47264466         0.414357963        -160.1719085
      3.365327e+010       0.9787475616        -174.8990202         3.655069899         86.87367112       0.02849080694        -51.44281713        0.4141439765        -160.1887731
      3.370326e+010       0.9784878908         -174.911387          3.64929838         86.84881426       0.02840845435        -51.41252422        0.4139309544        -160.2055289
      3.375325e+010       0.9782292274        -174.9236889         3.643545377         86.82400507       0.02832633455        -51.38176479        0.4137188918        -160.2221764
      3.380324e+010       0.9779715664        -174.9359263         3.637810802         86.79924327       0.02824444715         -51.3505377        0.4135077836        -160.2387163
      3.385323e+010       0.9777149032        -174.9480997         3.632094568         86.77452858       0.02816279177        -51.31884177        0.4132976248         -160.255149
      3.390322e+010       0.9774592332        -174.9602095         3.626396589         86.74986073       0.02808136802        -51.28667583        0.4130884106        -160.2714754
      3.395321e+010       0.9772045517        -174.9722559         3.620716777         86.72523946       0.02800017552        -51.25403872        0.4128801361        -160.2876958
       3.40032e+010        0.976950854        -174.9842396         3.615055048         86.70066449       0.02791921391        -51.22092923        0.4126727963         -160.303811
      3.405319e+010       0.9766981356        -174.9961607         3.609411317         86.67613556       0.02783848283        -51.18734616        0.4124663865        -160.3198215
      3.410318e+010       0.9764463918        -175.0080198         3.603785498         86.65165241       0.02775798189        -51.15328831        0.4122609019        -160.3357278
      3.415317e+010       0.9761956181        -175.0198171         3.598177508         86.62721477       0.02767771077        -51.11875446        0.4120563377        -160.3515307
      3.420316e+010       0.9759458099        -175.0315532         3.592587263         86.60282239       0.02759766909        -51.08374337        0.4118526891        -160.3672305
      3.425315e+010       0.9756969629        -175.0432283          3.58701468         86.57847501       0.02751785651        -51.04825381        0.4116499515         -160.382828
      3.430314e+010       0.9754490724        -175.0548428         3.581459676         86.55417236        0.0274382727        -51.01228453        0.4114481201        -160.3983236
      3.435313e+010        0.975202134        -175.0663972         3.575922169          86.5299142       0.02735891732        -50.97583427        0.4112471904        -160.4137179
      3.440312e+010       0.9749561432        -175.0778917         3.570402079         86.50570027       0.02727979003        -50.93890177        0.4110471576        -160.4290116
      3.445311e+010       0.9747110958        -175.0893268         3.564899323         86.48153033       0.02720089051        -50.90148575        0.4108480173         -160.444205
       3.45031e+010       0.9744669872        -175.1007028         3.559413821         86.45740412       0.02712221844        -50.86358492        0.4106497648        -160.4592989
      3.455309e+010       0.9742238131        -175.1120201         3.553945494          86.4333214       0.02704377351        -50.82519799        0.4104523956        -160.4742937
      3.460308e+010       0.9739815691        -175.1232791          3.54849426         86.40928191       0.02696555539        -50.78632366        0.4102559052          -160.48919
      3.465307e+010        0.973740251          -175.13448         3.543060042         86.38528543       0.02688756378        -50.74696061        0.4100602892        -160.5039883
      3.470306e+010       0.9734998544        -175.1456233         3.537642761          86.3613317       0.02680979839        -50.70710752         0.409865543        -160.5186892
      3.475305e+010       0.9732603751        -175.1567094         3.532242338         86.33742048       0.02673225891        -50.66676307        0.4096716624        -160.5332931
      3.480304e+010       0.9730218088        -175.1677384         3.526858696         86.31355154       0.02665494505        -50.62592591        0.4094786428        -160.5478007
      3.485303e+010       0.9727841513        -175.1787109         3.521491758         86.28972464       0.02657785653        -50.58459469        0.4092864799        -160.5622124
      3.490302e+010       0.9725473983        -175.1896272         3.516141446         86.26593955       0.02650099307        -50.54276806        0.4090951694        -160.5765288
      3.495301e+010       0.9723115457        -175.2004875         3.510807684         86.24219603       0.02642435439        -50.50044466        0.4089047069        -160.5907504
        3.5003e+010       0.9720765894        -175.2112923         3.505490397         86.21849384       0.02634794021         -50.4576231        0.4087150883        -160.6048777
      3.505299e+010       0.9718425251        -175.2220418         3.500189509         86.19483277       0.02627175026        -50.41430202        0.4085263092        -160.6189112
      3.510298e+010       0.9716093488        -175.2327365         3.494904945         86.17121257        0.0261957843        -50.37048001        0.4083383653        -160.6328515
      3.515297e+010       0.9713770564        -175.2433766         3.489636631         86.14763303       0.02612004205        -50.32615568        0.4081512526         -160.646699
      3.520296e+010       0.9711456438        -175.2539625         3.484384493         86.12409392       0.02604452328        -50.28132762        0.4079649668        -160.6604542
      3.525295e+010       0.9709151069        -175.2644944         3.479148456         86.10059501       0.02596922772        -50.23599441        0.4077795038        -160.6741176
      3.530294e+010       0.9706854417        -175.2749728         3.473928448         86.07713608       0.02589415513        -50.19015464        0.4075948594        -160.6876898
      3.535293e+010       0.9704566442         -175.285398         3.468724396         86.05371691       0.02581930529        -50.14380688        0.4074110296        -160.7011713
      3.540292e+010       0.9702287105        -175.2957702         3.463536228         86.03033729       0.02574467795        -50.09694968        0.4072280103        -160.7145624
      3.545291e+010       0.9700016365        -175.3060898         3.458363871         86.00699699        0.0256702729        -50.04958159        0.4070457973        -160.7278637
       3.55029e+010       0.9697754182        -175.3163572         3.453207254          85.9836958       0.02559608989        -50.00170117        0.4068643868        -160.7410758
      3.555289e+010       0.9695500519        -175.3265725         3.448066307          85.9604335       0.02552212873        -49.95330696        0.4066837747         -160.754199
      3.560288e+010       0.9693255335        -175.3367362         3.442940958         85.93720988       0.02544838918        -49.90439748        0.4065039571        -160.7672338
      3.565287e+010       0.9691018592        -175.3468485         3.437831138         85.91402474       0.02537487106        -49.85497125        0.4063249299        -160.7801808
      3.570286e+010       0.9688790252        -175.3569098         3.432736775         85.89087785       0.02530157414         -49.8050268        0.4061466893        -160.7930404
      3.575285e+010       0.9686570275        -175.3669203         3.427657802         85.86776901       0.02522849824        -49.75456263        0.4059692314         -160.805813
      3.580284e+010       0.9684358623        -175.3768804         3.422594149         85.84469801       0.02515564316        -49.70357725        0.4057925522        -160.8184992
      3.585283e+010        0.968215526        -175.3867904         3.417545748         85.82166465       0.02508300871        -49.65206915         0.405616648        -160.8310993
      3.590282e+010       0.9679960146        -175.3966505          3.41251253         85.79866873        0.0250105947        -49.60003682        0.4054415149        -160.8436139
      3.595281e+010       0.9677773244         -175.406461         3.407494427         85.77571003       0.02493840096        -49.54747875        0.4052671491        -160.8560435
       3.60028e+010       0.9675594516        -175.4162223         3.402491372         85.75278837       0.02486642732         -49.4943934        0.4050935468        -160.8683883
      3.605279e+010       0.9673423927        -175.4259347         3.397503299         85.72990353       0.02479467359        -49.44077925        0.4049207042         -160.880649
      3.610278e+010       0.9671261437        -175.4355984          3.39253014         85.70705532       0.02472313963        -49.38663476        0.4047486178         -160.892826
      3.615277e+010       0.9669107012        -175.4452137         3.387571829         85.68424354       0.02465182526         -49.3319584        0.4045772836        -160.9049197
      3.620276e+010       0.9666960613        -175.4547809         3.382628301         85.66146799       0.02458073034         -49.2767486         0.404406698        -160.9169305
      3.625275e+010       0.9664822205        -175.4643004         3.377699489         85.63872849       0.02450985471        -49.22100381        0.4042368574        -160.9288589
      3.630274e+010       0.9662691751        -175.4737723         3.372785329         85.61602483       0.02443919822        -49.16472248        0.4040677581        -160.9407054
      3.635273e+010       0.9660569215        -175.4831969         3.367885757         85.59335683       0.02436876075        -49.10790304        0.4038993966        -160.9524703
      3.640272e+010       0.9658454562        -175.4925746         3.363000707          85.5707243       0.02429854214        -49.05054391        0.4037317691        -160.9641541
      3.645271e+010       0.9656347756        -175.5019056         3.358130116         85.54812704       0.02422854228        -48.99264352        0.4035648721        -160.9757572
       3.65027e+010        0.965424876        -175.5111902          3.35327392         85.52556486       0.02415876102        -48.93420029         0.403398702        -160.9872801
      3.655269e+010       0.9652157541        -175.5204286         3.348432057         85.50303758       0.02408919826        -48.87521264        0.4032332554        -160.9987232
      3.660268e+010       0.9650074062        -175.5296212         3.343604462         85.48054502       0.02401985388        -48.81567896        0.4030685287        -161.0100869
      3.665267e+010        0.964799829        -175.5387682         3.338791074         85.45808699       0.02395072775        -48.75559766        0.4029045184        -161.0213715
      3.670266e+010       0.9645930188        -175.5478698         3.333991831          85.4356633       0.02388181979        -48.69496714        0.4027412211        -161.0325777
      3.675265e+010       0.9643869723        -175.5569264          3.32920667         85.41327378       0.02381312987         -48.6337858        0.4025786332        -161.0437056
      3.680264e+010       0.9641816861        -175.5659381         3.324435531         85.39091824       0.02374465792        -48.57205203        0.4024167514        -161.0547558
      3.685263e+010       0.9639771566        -175.5749054         3.319678351          85.3685965       0.02367640383        -48.50976421        0.4022555723        -161.0657287
      3.690262e+010       0.9637733805        -175.5838283         3.314935072         85.34630839       0.02360836751        -48.44692073        0.4020950924        -161.0766247
      3.695261e+010       0.9635703545        -175.5927072         3.310205631         85.32405373       0.02354054888        -48.38351996        0.4019353085        -161.0874441
       3.70026e+010        0.963368075        -175.6015424         3.305489969         85.30183234       0.02347294787        -48.31956029         0.401776217        -161.0981874
      3.705259e+010       0.9631665389         -175.610334         3.300788027         85.27964405        0.0234055644        -48.25504008        0.4016178148         -161.108855
      3.710258e+010       0.9629657428        -175.6190823         3.296099744         85.25748869        0.0233383984        -48.18995771        0.4014600985        -161.1194472
      3.715257e+010       0.9627656833        -175.6277877         3.291425062         85.23536607        0.0232714498        -48.12431153        0.4013030648        -161.1299645
      3.720256e+010       0.9625663572        -175.6364503         3.286763923         85.21327603       0.02320471855        -48.05809992        0.4011467105        -161.1404073
      3.725255e+010       0.9623677612        -175.6450703         3.282116267         85.19121841        0.0231382046        -47.99132123        0.4009910323        -161.1507758
      3.730254e+010       0.9621698919        -175.6536481         3.277482037         85.16919303       0.02307190788        -47.92397383         0.400836027        -161.1610707
      3.735253e+010       0.9619727463        -175.6621839         3.272861176         85.14719972       0.02300582836        -47.85605608        0.4006816913        -161.1712921
      3.740252e+010        0.961776321        -175.6706779         3.268253624         85.12523831       0.02293996599        -47.78756632        0.4005280222        -161.1814405
      3.745251e+010       0.9615806129        -175.6791303         3.263659327         85.10330865       0.02287432074        -47.71850291        0.4003750163        -161.1915163
       3.75025e+010       0.9613856187        -175.6875415         3.259078227         85.08141056       0.02280889258        -47.64886421        0.4002226706        -161.2015199
      3.755249e+010       0.9611913352        -175.6959115         3.254510266         85.05954389       0.02274368148        -47.57864856        0.4000709819        -161.2114516
      3.760248e+010       0.9609977594        -175.7042408         3.249955391         85.03770847       0.02267868742        -47.50785432        0.3999199471        -161.2213117
      3.765247e+010        0.960804888        -175.7125294         3.245413544         85.01590413       0.02261391038        -47.43647983        0.3997695631        -161.2311008
      3.770246e+010        0.960612718        -175.7207777          3.24088467         84.99413073       0.02254935034        -47.36452345        0.3996198268        -161.2408191
      3.775245e+010       0.9604212462        -175.7289858         3.236368714         84.97238809       0.02248500731        -47.29198353        0.3994707352        -161.2504669
      3.780244e+010       0.9602304696        -175.7371541         3.231865621         84.95067607       0.02242088127        -47.21885841        0.3993222852        -161.2600448
      3.785243e+010        0.960040385        -175.7452826         3.227375336          84.9289945       0.02235697223        -47.14514644        0.3991744738        -161.2695529
      3.790242e+010       0.9598509894        -175.7533717         3.222897806         84.90734322       0.02229328019        -47.07084597         0.399027298        -161.2789918
      3.795241e+010       0.9596622797        -175.7614216         3.218432977          84.8857221       0.02222980516        -46.99595536        0.3988807549        -161.2883616
       3.80024e+010        0.959474253        -175.7694325         3.213980793         84.86413096       0.02216654716        -46.92047295        0.3987348413        -161.2976629
      3.805239e+010       0.9592869061        -175.7774046         3.209541204         84.84256965        0.0221035062        -46.84439711        0.3985895544        -161.3068959
      3.810238e+010       0.9591002362        -175.7853382         3.205114154         84.82103803       0.02204068232        -46.76772618        0.3984448913        -161.3160611
      3.815237e+010       0.9589142402        -175.7932334         3.200699592         84.79953595       0.02197807554        -46.69045851         0.398300849        -161.3251586
      3.820236e+010       0.9587289151        -175.8010904         3.196297465         84.77806324       0.02191568588        -46.61259248        0.3981574246         -161.334189
      3.825235e+010        0.958544258        -175.8089096         3.191907721         84.75661977        0.0218535134        -46.53412645        0.3980146152        -161.3431525
      3.830234e+010        0.958360266        -175.8166911         3.187530308         84.73520539       0.02179155813        -46.45505876         0.397872418        -161.3520494
      3.835233e+010       0.9581769361        -175.8244351         3.183165174         84.71381994       0.02172982012        -46.37538781        0.3977308301        -161.3608802
      3.840232e+010       0.9579942655        -175.8321418         3.178812269         84.69246329       0.02166829941        -46.29511195        0.3975898487        -161.3696451
      3.845231e+010       0.9578122512        -175.8398114          3.17447154         84.67113528       0.02160699607        -46.21422955         0.397449471        -161.3783445
       3.85023e+010       0.9576308904        -175.8474442         3.170142937         84.64983577       0.02154591016        -46.13273901        0.3973096941        -161.3869788
      3.855229e+010       0.9574501802        -175.8550404         3.165826411         84.62856463       0.02148504174         -46.0506387        0.3971705153        -161.3955482
      3.860228e+010       0.9572701178        -175.8626001         3.161521909          84.6073217       0.02142439087        -45.96792701        0.3970319318        -161.4040531
      3.865227e+010       0.9570907002        -175.8701236         3.157229384         84.58610684       0.02136395764        -45.88460234        0.3968939408        -161.4124938
      3.870226e+010       0.9569119248        -175.8776111         3.152948784         84.56491992       0.02130374211        -45.80066307        0.3967565397        -161.4208706
      3.875225e+010       0.9567337887        -175.8850627         3.148680061         84.54376079       0.02124374438        -45.71610762        0.3966197256        -161.4291839
      3.880224e+010       0.9565562891        -175.8924787         3.144423165         84.52262932       0.02118396452         -45.6309344        0.3964834959         -161.437434
      3.885223e+010       0.9563794233        -175.8998593         3.140178048         84.50152537       0.02112440264        -45.54514181         0.396347848        -161.4456212
      3.890222e+010       0.9562031884        -175.9072046         3.135944661          84.4804488       0.02106505882         -45.4587283         0.396212779        -161.4537458
      3.895221e+010       0.9560275818        -175.9145149         3.131722956         84.45939947       0.02100593316        -45.37169228        0.3960782864        -161.4618082
       3.90022e+010       0.9558526007        -175.9217904         3.127512884         84.43837725       0.02094702577        -45.28403219        0.3959443675        -161.4698086
      3.905219e+010       0.9556782423        -175.9290312         3.123314398           84.417382       0.02088833675        -45.19574648        0.3958110197        -161.4777473
      3.910218e+010       0.9555045041        -175.9362376          3.11912745          84.3964136       0.02082986623         -45.1068336        0.3956782404        -161.4856248
      3.915217e+010       0.9553313833        -175.9434097         3.114951994          84.3754719       0.02077161431        -45.01729203        0.3955460269        -161.4934412
      3.920216e+010       0.9551588772        -175.9505477         3.110787981         84.35455678       0.02071358112        -44.92712022        0.3954143768         -161.501197
      3.925215e+010       0.9549869831        -175.9576519         3.106635365          84.3336681       0.02065576678        -44.83631665        0.3952832874        -161.5088923
      3.930214e+010       0.9548156985        -175.9647223           3.1024941         84.31280574       0.02059817142        -44.74487983        0.3951527561        -161.5165275
      3.935213e+010       0.9546450207        -175.9717592          3.09836414         84.29196956       0.02054079517        -44.65280825        0.3950227805        -161.5241029
      3.940212e+010        0.954474947        -175.9787628         3.094245437         84.27115944       0.02048363818        -44.56010043        0.3948933579        -161.5316189
      3.945211e+010       0.9543054749        -175.9857333         3.090137948         84.25037525       0.02042670058        -44.46675488         0.394764486        -161.5390756
       3.95021e+010       0.9541366017        -175.9926708         3.086041625         84.22961685       0.02036998252        -44.37277014        0.3946361622        -161.5464734
      3.955209e+010       0.9539683249        -175.9995755         3.081956424         84.20888414       0.02031348415        -44.27814476        0.3945083839        -161.5538127
      3.960208e+010        0.953800642        -176.0064477           3.0778823         84.18817697       0.02025720563         -44.1828773        0.3943811489        -161.5610936
      3.965207e+010       0.9536335503        -176.0132874         3.073819207         84.16749523       0.02020114711        -44.08696633        0.3942544545        -161.5683165
      3.970206e+010       0.9534670473        -176.0200949         3.069767102         84.14683879       0.02014530876        -43.99041043        0.3941282984        -161.5754816
      3.975205e+010       0.9533011305        -176.0268703          3.06572594         84.12620753       0.02008969073         -43.8932082        0.3940026781        -161.5825893
      3.980204e+010       0.9531357973        -176.0336138         3.061695676         84.10560132       0.02003429321        -43.79535826        0.3938775912        -161.5896399
      3.985203e+010       0.9529710454        -176.0403256         3.057676268         84.08502005       0.01997911637        -43.69685923        0.3937530353        -161.5966335
      3.990202e+010       0.9528068721        -176.0470059         3.053667671         84.06446359       0.01992416038        -43.59770976        0.3936290081        -161.6035706
      3.995201e+010       0.9526432751        -176.0536548         3.049669842         84.04393182       0.01986942542        -43.49790851        0.3935055071        -161.6104514
        4.0002e+010       0.9524802518        -176.0602725         3.045682738         84.02342463       0.01981491169        -43.39745414        0.3933825301        -161.6172761
      4.005199e+010       0.9523177997        -176.0668592         3.041706316         84.00294189       0.01976061937        -43.29634536        0.3932600746        -161.6240451
      4.010198e+010       0.9521559166         -176.073415         3.037740533         83.98248349       0.01970654865        -43.19458087        0.3931381383        -161.6307586
      4.015197e+010       0.9519945998        -176.0799401         3.033785346         83.96204931       0.01965269974        -43.09215939        0.3930167189        -161.6374168
      4.020196e+010       0.9518338471        -176.0864347         3.029840714         83.94163924       0.01959907283        -42.98907967        0.3928958141        -161.6440202
      4.025195e+010        0.951673656        -176.0928989         3.025906594         83.92125315       0.01954566812        -42.88534047        0.3927754217        -161.6505689
      4.030194e+010       0.9515140241         -176.099333         3.021982945         83.90089094       0.01949248584        -42.78094058        0.3926555392        -161.6570632
      4.035193e+010        0.951354949         -176.105737         3.018069724         83.88055248       0.01943952618         -42.6758788        0.3925361646        -161.6635034
      4.040192e+010       0.9511964284        -176.1121112         3.014166891         83.86023767       0.01938678937        -42.57015394        0.3924172954        -161.6698897
      4.045191e+010         0.95103846        -176.1184556         3.010274405         83.83994639       0.01933427562        -42.46376485        0.3922989295        -161.6762225
       4.05019e+010       0.9508810413        -176.1247705         3.006392224         83.81967854       0.01928198515         -42.3567104        0.3921810647        -161.6825019
      4.055189e+010       0.9507241701         -176.131056         3.002520307         83.79943399        0.0192299182        -42.24898947        0.3920636986        -161.6887282
      4.060188e+010        0.950567844        -176.1373123         2.998658615         83.77921264       0.01917807499        -42.14060096        0.3919468292        -161.6949018
      4.065187e+010       0.9504120608        -176.1435395         2.994807107         83.75901438       0.01912645575        -42.03154382        0.3918304542        -161.7010228
      4.070186e+010       0.9502568181        -176.1497378         2.990965742          83.7388391       0.01907506073        -41.92181699        0.3917145715        -161.7070915
      4.075185e+010       0.9501021136        -176.1559073         2.987134481         83.71868668       0.01902389016        -41.81141945        0.3915991788        -161.7131082
      4.080184e+010       0.9499479451        -176.1620482         2.983313284         83.69855703       0.01897294428        -41.70035021        0.3914842741        -161.7190731
      4.085183e+010       0.9497943104        -176.1681607         2.979502112         83.67845004       0.01892222334        -41.58860829        0.3913698551        -161.7249865
      4.090182e+010       0.9496412071        -176.1742448         2.975700925         83.65836559        0.0188717276        -41.47619275        0.3912559198        -161.7308486
      4.095181e+010        0.949488633        -176.1803009         2.971909684         83.63830358       0.01882145729        -41.36310267         0.391142466        -161.7366597
       4.10018e+010        0.949336586        -176.1863289         2.968128351         83.61826391       0.01877141269        -41.24933716        0.3910294916        -161.7424201
      4.105179e+010       0.9491850637         -176.192329         2.964356887         83.59824646       0.01872159405        -41.13489535        0.3909169945        -161.7481299
      4.110178e+010       0.9490340641        -176.1983015         2.960595253         83.57825115       0.01867200162        -41.01977641        0.3908049727        -161.7537894
      4.115177e+010       0.9488835848        -176.2042464         2.956843411         83.55827786       0.01862263568        -40.90397952        0.3906934241        -161.7593989
      4.120176e+010       0.9487336238        -176.2101639         2.953101322         83.53832649        0.0185734965        -40.78750392        0.3905823465        -161.7649586
      4.125175e+010       0.9485841788        -176.2160542          2.94936895         83.51839693       0.01852458434        -40.67034886         0.390471738        -161.7704688
      4.130174e+010       0.9484352477        -176.2219173         2.945646256          83.4984891       0.01847589947        -40.55251361        0.3903615965        -161.7759297
      4.135173e+010       0.9482868283        -176.2277534         2.941933203         83.47860287       0.01842744219        -40.43399749          0.39025192        -161.7813415
      4.140172e+010       0.9481389186        -176.2335627         2.938229753         83.45873817       0.01837921275        -40.31479985        0.3901427065        -161.7867045
      4.145171e+010       0.9479915163        -176.2393454          2.93453587         83.43889487       0.01833121146        -40.19492006        0.3900339539        -161.7920188
       4.15017e+010       0.9478446194        -176.2451015         2.930851516         83.41907289       0.01828343858        -40.07435754        0.3899256603        -161.7972849
      4.155169e+010       0.9476982257        -176.2508311         2.927176655         83.39927213       0.01823589441        -39.95311174        0.3898178237        -161.8025028
      4.160168e+010       0.9475523332        -176.2565345         2.923511251         83.37949249       0.01818857924        -39.83118213        0.3897104421        -161.8076728
      4.165167e+010       0.9474069397        -176.2622118         2.919855266         83.35973387       0.01814149336        -39.70856823        0.3896035135        -161.8127951
      4.170166e+010       0.9472620433        -176.2678631         2.916208664         83.33999617       0.01809463707        -39.58526959         0.389497036          -161.81787
      4.175165e+010       0.9471176418        -176.2734885         2.912571411         83.32027929       0.01804801066         -39.4612858        0.3893910076        -161.8228978
      4.180164e+010       0.9469737331        -176.2790882         2.908943469         83.30058315       0.01800161443        -39.33661649        0.3892854265        -161.8278785
      4.185163e+010       0.9468303153        -176.2846624         2.905324803         83.28090765       0.01795544868        -39.21126132        0.3891802907        -161.8328125
      4.190162e+010       0.9466873863         -176.290211         2.901715378         83.26125269       0.01790951372        -39.08521998        0.3890755983           -161.8377
      4.195161e+010       0.9465449441        -176.2957344         2.898115159         83.24161817       0.01786380985        -38.95849223        0.3889713473        -161.8425412
       4.20016e+010       0.9464029867        -176.3012325          2.89452411         83.22200401       0.01781833738        -38.83107783         0.388867536        -161.8473363
      4.205159e+010        0.946261512        -176.3067057         2.890942197         83.20241011       0.01777309662        -38.70297662        0.3887641624        -161.8520855
      4.210158e+010        0.946120518        -176.3121539         2.887369384         83.18283638       0.01772808789        -38.57418846        0.3886612246        -161.8567892
      4.215157e+010       0.9459800029        -176.3175773         2.883805638         83.16328273       0.01768331149        -38.44471324        0.3885587209        -161.8614474
      4.220156e+010       0.9458399646         -176.322976         2.880250923         83.14374906       0.01763876774        -38.31455092        0.3884566493        -161.8660604
      4.225155e+010       0.9457004011        -176.3283502         2.876705206         83.12423528       0.01759445696        -38.18370149         0.388355008        -161.8706284
      4.230154e+010       0.9455613105           -176.3337         2.873168452         83.10474131       0.01755037947        -38.05216498        0.3882537951        -161.8751517
      4.235153e+010       0.9454226909        -176.3390255         2.869640628         83.08526705       0.01750653558        -37.91994146         0.388153009        -161.8796304
      4.240152e+010       0.9452845403        -176.3443269           2.8661217         83.06581242       0.01746292563        -37.78703107        0.3880526477        -161.8840647
      4.245151e+010       0.9451468567        -176.3496042         2.862611634         83.04637732       0.01741954993        -37.65343398        0.3879527094         -161.888455
       4.25015e+010       0.9450096384        -176.3548576         2.859110397         83.02696167        0.0173764088        -37.51915039        0.3878531924        -161.8928013
      4.255149e+010       0.9448728833        -176.3600873         2.855617957         83.00756539       0.01733350258        -37.38418058        0.3877540949        -161.8971039
      4.260148e+010       0.9447365896        -176.3652933         2.852134278         82.98818837       0.01729083159        -37.24852486        0.3876554151         -161.901363
      4.265147e+010       0.9446007553        -176.3704757          2.84865933         82.96883054       0.01724839616        -37.11218358        0.3875571512        -161.9055788
      4.270146e+010       0.9444653787        -176.3756347         2.845193079         82.94949181       0.01720619662        -36.97515716        0.3874593016        -161.9097515
      4.275145e+010       0.9443304578        -176.3807705         2.841735493          82.9301721        0.0171642333        -36.83744607        0.3873618644        -161.9138813
      4.280144e+010       0.9441959908        -176.3858831         2.838286539         82.91087132       0.01712250652         -36.6990508        0.3872648379        -161.9179685
      4.285143e+010       0.9440619758        -176.3909726         2.834846185         82.89158938       0.01708101663        -36.55997193        0.3871682204        -161.9220132
      4.290142e+010        0.943928411        -176.3960391         2.831414398          82.8723262       0.01703976395        -36.42021006        0.3870720103        -161.9260156
      4.295141e+010       0.9437952946        -176.4010829         2.827991148          82.8530817       0.01699874882        -36.27976587        0.3869762056        -161.9299759
       4.30014e+010       0.9436626247         -176.406104         2.824576402         82.83385579       0.01695797158        -36.13864008        0.3868808049        -161.9338943
      4.305139e+010       0.9435303995        -176.4111024         2.821170129         82.81464839       0.01691743255        -35.99683346        0.3867858064        -161.9377711
      4.310138e+010       0.9433986172        -176.4160784         2.817772297         82.79545942       0.01687713207        -35.85434685        0.3866912084        -161.9416064
      4.315137e+010        0.943267276        -176.4210321         2.814382875          82.7762888       0.01683707047        -35.71118113        0.3865970092        -161.9454004
      4.320136e+010       0.9431363741        -176.4259635         2.811001832         82.75713645        0.0167972481        -35.56733724        0.3865032072        -161.9491533
      4.325135e+010       0.9430059098        -176.4308728         2.807629136         82.73800227       0.01675766528        -35.42281618        0.3864098008        -161.9528653
      4.330134e+010       0.9428758813        -176.4357601         2.804264758         82.71888621       0.01671832236        -35.27761901        0.3863167882        -161.9565366
      4.335133e+010       0.9427462867        -176.4406254         2.800908666         82.69978816       0.01667921966        -35.13174685        0.3862241679        -161.9601673
      4.340132e+010       0.9426171245         -176.445469         2.797560829         82.68070807       0.01664035752        -34.98520086        0.3861319382        -161.9637578
      4.345131e+010       0.9424883927        -176.4502909         2.794221218         82.66164584       0.01660173628        -34.83798228        0.3860400975        -161.9673081
       4.35013e+010       0.9423600897        -176.4550912         2.790889803         82.64260139       0.01656335627         -34.6900924        0.3859486443        -161.9708185
      4.355129e+010       0.9422322138        -176.4598701         2.787566552         82.62357466       0.01652521783        -34.54153258        0.3858575768        -161.9742891
      4.360128e+010       0.9421047632        -176.4646276         2.784251436         82.60456555       0.01648732128        -34.39230423        0.3857668936        -161.9777201
      4.365127e+010       0.9419777362        -176.4693639         2.780944426           82.585574       0.01644966697        -34.24240883        0.3856765929        -161.9811117
      4.370126e+010       0.9418511312         -176.474079         2.777645492         82.56659993       0.01641225521        -34.09184791        0.3855866734        -161.9844642
      4.375125e+010       0.9417249463        -176.4787731         2.774354604         82.54764326       0.01637508636        -33.94062309        0.3854971333        -161.9877776
      4.380124e+010       0.9415991801        -176.4834463         2.771071732         82.52870392       0.01633816072        -33.78873602        0.3854079711        -161.9910522
      4.385123e+010       0.9414738306        -176.4880987         2.767796848         82.50978182       0.01630147864        -33.63618844        0.3853191853        -161.9942881
      4.390122e+010       0.9413488964        -176.4927303         2.764529923          82.4908769       0.01626504044        -33.48298215        0.3852307743        -161.9974856
      4.395121e+010       0.9412243756        -176.4973414         2.761270927         82.47198908       0.01622884645        -33.32911899        0.3851427367        -162.0006447
       4.40012e+010       0.9411002668        -176.5019319         2.758019833         82.45311829       0.01619289699        -33.17460091        0.3850550707        -162.0037658
      4.405119e+010       0.9409765682        -176.5065021          2.75477661         82.43426444       0.01615719239        -33.01942989        0.3849677751        -162.0068489
      4.410118e+010       0.9408532781        -176.5110519         2.751541231         82.41542748       0.01612173296        -32.86360799        0.3848808482        -162.0098942
      4.415117e+010       0.9407303951        -176.5155815         2.748313667         82.39660732       0.01608651904        -32.70713735        0.3847942885        -162.0129019
      4.420116e+010       0.9406079173        -176.5200911          2.74509389          82.3778039       0.01605155093        -32.55002015        0.3847080945        -162.0158723
      4.425115e+010       0.9404858433        -176.5245806         2.741881872         82.35901713       0.01601682895        -32.39225866        0.3846222648        -162.0188054
      4.430114e+010       0.9403641714        -176.5290503         2.738677585         82.34024696       0.01598235343        -32.23385521        0.3845367979        -162.0217014
      4.435113e+010       0.9402429001        -176.5335002         2.735481001          82.3214933       0.01594812466        -32.07481222        0.3844516923        -162.0245605
      4.440112e+010       0.9401220276        -176.5379303         2.732292093         82.30275609       0.01591414297        -31.91513214        0.3843669465        -162.0273829
      4.445111e+010       0.9400015525        -176.5423409         2.729110832         82.28403526       0.01588040865        -31.75481753        0.3842825591        -162.0301688
       4.45011e+010       0.9398814732         -176.546732         2.725937191         82.26533074       0.01584692202        -31.59387099        0.3841985286        -162.0329182
      4.455109e+010        0.939761788        -176.5511036         2.722771144         82.24664244       0.01581368338        -31.43229522        0.3841148536        -162.0356315
      4.460108e+010       0.9396424955         -176.555456         2.719612662         82.22797032       0.01578069303        -31.27009296        0.3840315326        -162.0383087
      4.465107e+010       0.9395235941        -176.5597891         2.716461719          82.2093143       0.01574795125        -31.10726705        0.3839485643          -162.04095
      4.470106e+010       0.9394050823        -176.5641032         2.713318287          82.1906743       0.01571545836        -30.94382039        0.3838659472        -162.0435556
      4.475105e+010       0.9392869584        -176.5683982         2.710182341         82.17205027       0.01568321464        -30.77975596        0.3837836798        -162.0461256
      4.480104e+010        0.939169221        -176.5726742         2.707053853         82.15344213       0.01565122037        -30.61507679        0.3837017609        -162.0486603
      4.485103e+010       0.9390518686        -176.5769315         2.703932797         82.13484981       0.01561947584        -30.44978601        0.3836201889        -162.0511597
      4.490102e+010       0.9389348995          -176.58117         2.700819146         82.11627326       0.01558798134        -30.28388681        0.3835389625        -162.0536241
      4.495101e+010       0.9388183124        -176.5853898         2.697712875         82.09771239       0.01555673714        -30.11738247        0.3834580804        -162.0560536
        4.5001e+010       0.9387021058        -176.5895911         2.694613956         82.07916715       0.01552574352        -29.95027632         0.383377541        -162.0584483
      4.505099e+010        0.938586278         -176.593774         2.691522364         82.06063748       0.01549500074        -29.78257177        0.3832973432        -162.0608084
      4.510098e+010       0.9384708277        -176.5979384         2.688438073         82.04212329       0.01546450907        -29.61427233        0.3832174854        -162.0631342
      4.515097e+010       0.9383557534        -176.6020846         2.685361057         82.02362454       0.01543426877        -29.44538155        0.3831379663        -162.0654256
      4.520096e+010       0.9382410535        -176.6062126          2.68229129         82.00514115       0.01540428011        -29.27590307        0.3830587847        -162.0676829
      4.525095e+010       0.9381267266        -176.6103225         2.679228748         81.98667305       0.01537454333        -29.10584062        0.3829799391        -162.0699063
      4.530094e+010       0.9380127713        -176.6144143         2.676173403          81.9682202       0.01534505868        -28.93519798        0.3829014283        -162.0720959
      4.535093e+010       0.9378991861        -176.6184883         2.673125232         81.94978251       0.01531582642        -28.76397902        0.3828232508        -162.0742519
      4.540092e+010       0.9377859696        -176.6225444         2.670084209         81.93135993       0.01528684678        -28.59218769        0.3827454054        -162.0763743
      4.545091e+010       0.9376731203        -176.6265827         2.667050308          81.9129524       0.01525811999        -28.41982799        0.3826678907        -162.0784635
       4.55009e+010       0.9375606367        -176.6306034         2.664023505         81.89455985       0.01522964629        -28.24690403        0.3825907055        -162.0805194
      4.555089e+010       0.9374485176        -176.6346065         2.661003775         81.87618222       0.01520142591        -28.07341997        0.3825138484        -162.0825423
      4.560088e+010       0.9373367613        -176.6385921         2.657991093         81.85781944       0.01517345905        -27.89938006        0.3824373181        -162.0845323
      4.565087e+010       0.9372253667        -176.6425603         2.654985435         81.83947146       0.01514574595        -27.72478861        0.3823611134        -162.0864896
      4.570086e+010       0.9371143321        -176.6465112         2.651986776         81.82113822        0.0151182868        -27.54965003         0.382285233        -162.0884143
      4.575085e+010       0.9370036562        -176.6504448         2.648995092         81.80281965       0.01509108182        -27.37396879        0.3822096755        -162.0903066
      4.580084e+010       0.9368933377        -176.6543613         2.646010357         81.78451569       0.01506413121        -27.19774943        0.3821344398        -162.0921666
      4.585083e+010       0.9367833752        -176.6582607         2.643032549         81.76622628       0.01503743514        -27.02099658        0.3820595246        -162.0939945
      4.590082e+010       0.9366737672        -176.6621432         2.640061644         81.74795136       0.01501099383        -26.84371493        0.3819849285        -162.0957903
      4.595081e+010       0.9365645124        -176.6660087         2.637097616         81.72969087       0.01498480743        -26.66590925        0.3819106504        -162.0975543
       4.60008e+010       0.9364556095        -176.6698574         2.634140443         81.71144476       0.01495887614        -26.48758441        0.3818366891        -162.0992866
      4.605079e+010        0.936347057        -176.6736893           2.6311901         81.69321296       0.01493320012        -26.30874531        0.3817630431        -162.1009874
      4.610078e+010       0.9362388536        -176.6775046         2.628246564         81.67499541       0.01490777953        -26.12939695        0.3816897115        -162.1026567
      4.615077e+010        0.936130998        -176.6813033         2.625309812         81.65679206       0.01488261453        -25.94954441        0.3816166928        -162.1042947
      4.620076e+010       0.9360234889        -176.6850855         2.622379819         81.63860285       0.01485770528        -25.76919283        0.3815439859        -162.1059016
      4.625075e+010       0.9359163248        -176.6888513         2.619456564         81.62042771        0.0148330519        -25.58834743        0.3814715896        -162.1074775
      4.630074e+010       0.9358095046        -176.6926008         2.616540022          81.6022666       0.01480865455         -25.4070135        0.3813995027        -162.1090226
      4.635073e+010       0.9357030267        -176.6963339          2.61363017         81.58411945       0.01478451335         -25.2251964        0.3813277239        -162.1105369
      4.640072e+010         0.93559689        -176.7000509         2.610726986         81.56598621       0.01476062842        -25.04290158        0.3812562521        -162.1120207
      4.645071e+010       0.9354910931        -176.7037518         2.607830447         81.54786682       0.01473699987        -24.86013454        0.3811850861        -162.1134741
       4.65007e+010       0.9353856348        -176.7074367         2.604940529         81.52976122       0.01471362783        -24.67690085        0.3811142247        -162.1148971
      4.655069e+010       0.9352805136        -176.7111056          2.60205721         81.51166936       0.01469051239        -24.49320618        0.3810436667        -162.1162899
      4.660068e+010       0.9351757284        -176.7147586         2.599180469         81.49359119       0.01466765364        -24.30905625         0.380973411        -162.1176528
      4.665067e+010       0.9350712779        -176.7183958         2.596310281         81.47552664       0.01464505166        -24.12445683        0.3809034563        -162.1189857
      4.670066e+010       0.9349671607        -176.7220173         2.593446625         81.45747566       0.01462270655        -23.93941381        0.3808338016        -162.1202889
      4.675065e+010       0.9348633756        -176.7256231         2.590589479          81.4394382       0.01460061836         -23.7539331        0.3807644456        -162.1215625
      4.680064e+010       0.9347599213        -176.7292134          2.58773882         81.42141421       0.01457878717        -23.56802071        0.3806953872        -162.1228065
      4.685063e+010       0.9346567966        -176.7327882         2.584894626         81.40340362       0.01455721302         -23.3816827        0.3806266253        -162.1240212
      4.690062e+010       0.9345540002        -176.7363475         2.582056875         81.38540638       0.01453589597         -23.1949252        0.3805581588        -162.1252067
      4.695061e+010       0.9344515309        -176.7398915         2.579225547         81.36742245       0.01451483605        -23.00775442        0.3804899864        -162.1263631
       4.70006e+010       0.9343493873        -176.7434202         2.576400617         81.34945176       0.01449403329        -22.82017661        0.3804221071        -162.1274905
      4.705059e+010       0.9342475684        -176.7469337         2.573582066         81.33149426       0.01447348772         -22.6321981        0.3803545198        -162.1285891
      4.710058e+010       0.9341460728         -176.750432         2.570769872         81.31354991       0.01445319936         -22.4438253        0.3802872233        -162.1296589
      4.715057e+010       0.9340448993        -176.7539153         2.567964012         81.29561864       0.01443316819        -22.25506464        0.3802202165        -162.1307002
      4.720056e+010       0.9339440467        -176.7573836         2.565164466         81.27770041       0.01441339423        -22.06592266        0.3801534984        -162.1317131
      4.725055e+010       0.9338435138         -176.760837         2.562371213         81.25979516       0.01439387746        -21.87640593        0.3800870678        -162.1326976
      4.730054e+010       0.9337432993        -176.7642755          2.55958423         81.24190285       0.01437461786        -21.68652109        0.3800209236        -162.1336539
      4.735053e+010       0.9336434022        -176.7676992         2.556803498         81.22402341        0.0143556154        -21.49627484        0.3799550647        -162.1345821
      4.740052e+010       0.9335438211        -176.7711083         2.554028995         81.20615681       0.01433687005        -21.30567393        0.3798894901        -162.1354824
      4.745051e+010       0.9334445548        -176.7745026           2.5512607         81.18830298       0.01431838174        -21.11472519        0.3798241986        -162.1363548
       4.75005e+010       0.9333456023        -176.7778824         2.548498593         81.17046188       0.01430015044        -20.92343548        0.3797591893        -162.1371996
      4.755049e+010       0.9332469622        -176.7812477         2.545742652         81.15263345       0.01428217607        -20.73181173         0.379694461        -162.1380168
      4.760048e+010       0.9331486335        -176.7845986         2.542992857         81.13481766       0.01426445855        -20.53986092        0.3796300127        -162.1388065
      4.765047e+010       0.9330506149        -176.7879351         2.540249188         81.11701443        0.0142469978        -20.34759009        0.3795658432        -162.1395689
      4.770046e+010       0.9329529054        -176.7912573         2.537511625         81.09922374       0.01422979374        -20.15500633        0.3795019517        -162.1403041
      4.775045e+010       0.9328555036        -176.7945653         2.534780145         81.08144552       0.01421284624        -19.96211677        0.3794383369        -162.1410122
      4.780044e+010       0.9327584085         -176.797859         2.532054731         81.06367973       0.01419615521         -19.7689286        0.3793749979        -162.1416933
      4.785043e+010        0.932661619        -176.8011387         2.529335361         81.04592632       0.01417972052        -19.57544907        0.3793119337        -162.1423476
      4.790042e+010       0.9325651338        -176.8044044         2.526622015         81.02818524       0.01416354204        -19.38168545        0.3792491431        -162.1429751
      4.795041e+010       0.9324689519        -176.8076561         2.523914673         81.01045645       0.01414761962        -19.18764507        0.3791866253         -162.143576
       4.80004e+010        0.932373072        -176.8108939         2.521213316         80.99273989       0.01413195311        -18.99333532        0.3791243791        -162.1441504
      4.805039e+010       0.9322774931        -176.8141178         2.518517923         80.97503551       0.01411654235        -18.79876361        0.3790624035        -162.1446985
      4.810038e+010       0.9321822141         -176.817328         2.515828475         80.95734327       0.01410138717        -18.60393741        0.3790006975        -162.1452203
      4.815037e+010       0.9320872338        -176.8205244         2.513144953         80.93966312       0.01408648739        -18.40886421        0.3789392601        -162.1457159
      4.820036e+010       0.9319925512        -176.8237072         2.510467336         80.92199502       0.01407184281        -18.21355158        0.3788780904        -162.1461855
      4.825035e+010        0.931898165        -176.8268764         2.507795605         80.90433891       0.01405745324        -18.01800708        0.3788171872        -162.1466292
      4.830034e+010       0.9318040742        -176.8300322         2.505129741         80.88669476       0.01404331845        -17.82223834        0.3787565497        -162.1470471
      4.835033e+010       0.9317102778        -176.8331744         2.502469725         80.86906251       0.01402943824        -17.62625302        0.3786961768        -162.1474393
      4.840032e+010       0.9316167745        -176.8363032         2.499815537         80.85144211       0.01401581237         -17.4300588        0.3786360676         -162.147806
      4.845031e+010       0.9315235634        -176.8394188         2.497167158         80.83383353       0.01400244059        -17.23366342         0.378576221        -162.1481471
       4.85003e+010       0.9314306433         -176.842521         2.494524569         80.81623671       0.01398932265        -17.03707462        0.3785166361         -162.148463
      4.855029e+010       0.9313380131          -176.84561         2.491887751         80.79865161       0.01397645829        -16.84030019        0.3784573119        -162.1487536
      4.860028e+010       0.9312456719        -176.8486859         2.489256686         80.78107819       0.01396384724        -16.64334794        0.3783982475         -162.149019
      4.865027e+010       0.9311536184        -176.8517487         2.486631354          80.7635164       0.01395148921        -16.44622572        0.3783394418        -162.1492595
      4.870026e+010       0.9310618517        -176.8547985         2.484011738         80.74596619       0.01393938391         -16.2489414         0.378280894         -162.149475
      4.875025e+010       0.9309703707        -176.8578353         2.481397817         80.72842752       0.01392753103        -16.05150286        0.3782226031        -162.1496657
      4.880024e+010       0.9308791743        -176.8608592         2.478789574         80.71090035       0.01391593027        -15.85391801        0.3781645682        -162.1498318
      4.885023e+010       0.9307882615        -176.8638702          2.47618699         80.69338463       0.01390458128        -15.65619481        0.3781067882        -162.1499732
      4.890022e+010       0.9306976313        -176.8668685         2.473590046         80.67588032       0.01389348375        -15.45834119        0.3780492623        -162.1500902
      4.895021e+010       0.9306072825         -176.869854         2.470998726         80.65838738       0.01388263732        -15.26036514        0.3779919895        -162.1501829
       4.90002e+010       0.9305172142        -176.8728269         2.468413009         80.64090575       0.01387204164        -15.06227464        0.3779349689        -162.1502512
      4.905019e+010       0.9304274254        -176.8757871         2.465832878          80.6234354       0.01386169633         -14.8640777        0.3778781996        -162.1502954
      4.910018e+010       0.9303379149        -176.8787348         2.463258316         80.60597629       0.01385160103        -14.66578233        0.3778216806        -162.1503156
      4.915017e+010       0.9302486818          -176.88167         2.460689303         80.58852836       0.01384175534        -14.46739656         0.377765411        -162.1503118
      4.920016e+010       0.9301597251        -176.8845927         2.458125823         80.57109159       0.01383215887        -14.26892844          0.37770939        -162.1502842
      4.925015e+010       0.9300710437        -176.8875031         2.455567856         80.55366592       0.01382281121        -14.07038602        0.3776536166        -162.1502329
      4.930014e+010       0.9299826367        -176.8904011         2.453015387         80.53625132       0.01381371194        -13.87177734        0.3775980899        -162.1501579
      4.935013e+010        0.929894503        -176.8932869         2.450468395         80.51884774       0.01380486063        -13.67311047         0.377542809        -162.1500594
      4.940012e+010       0.9298066416        -176.8961604         2.447926866         80.50145514       0.01379625684        -13.47439348         0.377487773        -162.1499375
      4.945011e+010       0.9297190516        -176.8990218         2.445390779         80.48407348       0.01378790012        -13.27563442         0.377432981        -162.1497922
       4.95001e+010       0.9296317319        -176.9018711         2.442860119         80.46670272       0.01377979001        -13.07684138        0.3773784322        -162.1496237
      4.955009e+010       0.9295446816        -176.9047083         2.440334867         80.44934281       0.01377192604        -12.87802241        0.3773241256        -162.1494321
      4.960008e+010       0.9294578997        -176.9075335         2.437815007         80.43199372       0.01376430774        -12.67918558        0.3772700604        -162.1492175
      4.965007e+010       0.9293713852        -176.9103468         2.435300522          80.4146554        0.0137569346        -12.48033894        0.3772162357          -162.14898
      4.970006e+010       0.9292851371        -176.9131482         2.432791393         80.39732782       0.01374980613        -12.28149056        0.3771626506        -162.1487196
      4.975005e+010       0.9291991545        -176.9159378         2.430287604         80.38001093       0.01374292182        -12.08264847        0.3771093043        -162.1484366
      4.980004e+010       0.9291134363        -176.9187156         2.427789138          80.3627047       0.01373628115        -11.88382072        0.3770561959        -162.1481309
      4.985003e+010       0.9290279818        -176.9214816         2.425295978         80.34540908       0.01372988358        -11.68501533        0.3770033245        -162.1478026
      4.990002e+010       0.9289427897         -176.924236         2.422808107         80.32812403       0.01372372857        -11.48624031        0.3769506894         -162.147452
      4.995001e+010       0.9288578594        -176.9269788         2.420325508         80.31084952       0.01371781558        -11.28750367        0.3768982895         -162.147079
             5e+010       0.9287731897          -176.92971         2.417848165          80.2935855       0.01371214404        -11.08881339        0.3768461242        -162.1466838
