! Created Wed Apr 01 23:56:49 2026
# hz S ma R 50
! 2 Port Network Data from SP1.SP block
! freq  magS11  angS11  magS21  angS21  magS12  angS12  magS22  angS22  
!     
           10000000       0.8181817816      -0.05980639006          9.77454383            179.9626    8.673079077e-005           89.965941        0.9999998495      -0.04038209956
           59990000        0.818180502       -0.3587773015         9.774486975         179.7756383     0.0005202949884         89.79568081        0.9999945846       -0.2422514351
          109980000       0.8181773947       -0.6577429316         9.774348908         179.5886798     0.0009538462208          89.6254239        0.9999817991       -0.4441174277
          159970000         0.81817246       -0.9566988797         9.774129638         179.4017273      0.001387373686         89.45517299         0.999961494       -0.6459772918
          209960000       0.8181656982        -1.255640746         9.773829183         179.2147836      0.001820866584         89.28493082        0.9999336709       -0.8478282426
          259950000       0.8181571101        -1.554564133         9.773447565         179.0278513       0.00225431412          89.1147001        0.9998983319        -1.049667496
          309940000       0.8181466965        -1.853464643         9.772984812         178.8409332      0.002687705505         88.94448358        0.9998554798         -1.25149227
          359930000       0.8181344584        -2.152337881         9.772440957         178.6540321      0.003121029956         88.77428396        0.9998051179        -1.453299782
          409920000       0.8181203968        -2.451179455         9.771816043         178.4671506      0.003554276699         88.60410399        0.9997472499        -1.655087253
          459910000       0.8181045132        -2.749984976         9.771110115         178.2802914      0.003987434969         88.43394637        0.9996818804        -1.856851905
          509900000        0.818086809        -3.048750057         9.770323225         178.0934574      0.004420494013         88.26381382        0.9996090143        -2.058590962
          559890000        0.818067286        -3.347470316         9.769455433         177.9066511       0.00485344309         88.09370908        0.9995286573        -2.260301652
          609880000       0.8180459459        -3.646141374         9.768506801         177.7198753      0.005286271471         87.92363483        0.9994408155        -2.461981204
          659870000       0.8180227907        -3.944758856         9.767477402         177.5331328      0.005718968444         87.75359381        0.9993454956        -2.663626851
          709860000       0.8179978227        -4.243318394         9.766367311         177.3464263      0.006151523312         87.58358872        0.9992427049        -2.865235829
          759850000       0.8179710442        -4.541815621          9.76517661         177.1597583      0.006583925396         87.41362225        0.9991324513        -3.066805377
          809840000       0.8179424577         -4.84024618         9.763905387         176.9731317      0.007016164037         87.24369712        0.9990147433        -3.268332739
          859830000       0.8179120659        -5.138605717         9.762553737         176.7865492      0.007448228593         87.07381601        0.9988895897        -3.469815162
          909820000       0.8178798717        -5.436889885          9.76112176         176.6000134      0.007880108446         86.90398163        0.9987570003        -3.671249898
          959810000        0.817845878        -5.735094345          9.75960956          176.413527         0.008311793         86.73419665        0.9986169851        -3.872634204
         1009800000       0.8178100882        -6.033214762         9.758017251         176.2270927      0.008743271684         86.56446376        0.9984695547         -4.07396534
         1059790000       0.8177725054        -6.331246812         9.756344949         176.0407132       0.00917453395         86.39478563        0.9983147204        -4.275240574
         1109780000       0.8177331333        -6.629186177         9.754592777         175.8543912      0.009605569278         86.22516495         0.998152494        -4.476457177
         1159770000       0.8176919755        -6.927028546         9.752760865         175.6681293       0.01003636718         86.05560437        0.9979828879        -4.677612426
         1209760000       0.8176490359        -7.224769618         9.750849348         175.4819302       0.01046691718         85.88610655        0.9978059148        -4.878703605
         1259750000       0.8176043185        -7.522405101         9.748858365         175.2957965       0.01089720886         85.71667416        0.9976215883        -5.079728004
         1309740000       0.8175578275        -7.819930713         9.746788063         175.1097309       0.01132723181         85.54730983        0.9974299224        -5.280682918
         1359730000       0.8175095671        -8.117342178         9.744638593         174.9237361       0.01175697567         85.37801622        0.9972309314        -5.481565651
         1409720000       0.8174595419        -8.414635234         9.742410114         174.7378146       0.01218643009         85.20879594        0.9970246306        -5.682373511
         1459710000       0.8174077565        -8.711805629         9.740102787         174.5519691       0.01261558478         85.03965164        0.9968110354        -5.883103815
         1509700000       0.8173542158        -9.008849118         9.737716782         174.3662023       0.01304442948         84.87058593         0.996590162        -6.083753888
         1559690000       0.8172989247        -9.305761471         9.735252273         174.1805166       0.01347295395         84.70160142        0.9963620271         -6.28432106
         1609680000       0.8172418882        -9.602538468         9.732709439         173.9949148       0.01390114802         84.53270072        0.9961266477        -6.484802673
         1659670000       0.8171831118        -9.899175901         9.730088466         173.8093995       0.01432900154         84.36388642        0.9958840417        -6.685196073
         1709660000       0.8171226007        -10.19566957         9.727389543         173.6239731       0.01475650439         84.19516111        0.9956342272        -6.885498617
         1759650000       0.8170603607         -10.4920153         9.724612866         173.4386384       0.01518364652         84.02652738        0.9953772229         -7.08570767
         1809640000       0.8169963973        -10.78820891         9.721758638         173.2533978       0.01561041791         83.85798778        0.9951130481        -7.285820605
         1859630000       0.8169307165        -11.08424625         9.718827063          173.068254       0.01603680857         83.68954488        0.9948417225        -7.485834804
         1909620000       0.8168633243        -11.38012318         9.715818354         172.8832094       0.01646280858         83.52120124        0.9945632664        -7.685747661
         1959610000       0.8167942269        -11.67583556         9.712732728         172.6982667       0.01688840806          83.3529594        0.9942777004        -7.885556576
         2009600000       0.8167234306        -11.97137927         9.709570407         172.5134284       0.01731359716         83.18482189        0.9939850459        -8.085258961
         2059590000       0.8166509419        -12.26675022         9.706331618         172.3286969        0.0177383661         83.01679122        0.9936853246        -8.284852237
         2109580000       0.8165767673        -12.56194431         9.703016593         172.1440749       0.01816270514         82.84886993        0.9933785586        -8.484333835
         2159570000       0.8165009135        -12.85695748         9.699625571         171.9595647        0.0185866046          82.6810605        0.9930647706        -8.683701198
         2209560000       0.8164233876        -13.15178568         9.696158792          171.775169       0.01901005484         82.51336543        0.9927439839        -8.882951778
         2259550000       0.8163441964        -13.44642485         9.692616504         171.5908901       0.01943304628         82.34578719        0.9924162221        -9.082083038
         2309540000       0.8162633471        -13.74087097         9.688998961         171.4067306       0.01985556939         82.17832827        0.9920815092        -9.281092454
         2359530000       0.8161808471        -14.03512004         9.685306417         171.2226929        0.0202776147         82.01099112        0.9917398699        -9.479977511
         2409520000       0.8160967038        -14.32916806         9.681539137         171.0387794       0.02069917278         81.84377817        0.9913913292        -9.678735705
         2459510000       0.8160109246        -14.62301107         9.677697385         170.8549927       0.02112023428         81.67669188        0.9910359126        -9.877364547
         2509500000       0.8159235174         -14.9166451         9.673781434          170.671335        0.0215407899         81.50973467        0.9906736459        -10.07586156
         2559490000       0.8158344898        -15.21006621         9.669791559         170.4878089       0.02196083039         81.34290893        0.9903045556        -10.27422427
         2609480000       0.8157438499        -15.50327048         9.665728041         170.3044168       0.02238034657         81.17621708        0.9899286685        -10.47245023
         2659470000       0.8156516057        -15.79625401         9.661591164         170.1211609       0.02279932931          81.0096615        0.9895460119        -10.67053699
         2709460000       0.8155577653        -16.08901291          9.65738122         169.9380438       0.02321776955         80.84324457        0.9891566133        -10.86848212
         2759450000       0.8154623372        -16.38154331           9.6530985         169.7550677       0.02363565828         80.67696864         0.988760501        -11.06628322
         2809440000       0.8153653297        -16.67384138         9.648743305          169.572235       0.02405298658         80.51083606        0.9883577034        -11.26393786
         2859430000       0.8152667514        -16.96590327         9.644315935          169.389548       0.02446974557         80.34484918        0.9879482494        -11.46144367
         2909420000       0.8151666109        -17.25772519           9.6398167         169.2070091       0.02488592644          80.1790103        0.9875321684        -11.65879827
         2959410000        0.815064917        -17.54930333         9.635245909         169.0246206       0.02530152044         80.01332174        0.9871094902        -11.85599929
         3009400000       0.8149616786        -17.84063394         9.630603878         168.8423848        0.0257165189          79.8477858        0.9866802448        -12.05304438
         3059390000       0.8148569048        -18.13171327         9.625890926         168.6603039       0.02613091321         79.68240474        0.9862444628        -12.24993122
         3109380000       0.8147506045        -18.42253758         9.621107377         168.4783802       0.02654469483         79.51718085        0.9858021751        -12.44665746
         3159370000        0.814642787        -18.71310317         9.616253558          168.296616       0.02695785528         79.35211637        0.9853534129        -12.64322082
         3209360000       0.8145334617        -19.00340635           9.6113298         168.1150134       0.02737038615         79.18721353         0.984898208        -12.83961899
         3259350000        0.814422638        -19.29344346         9.606336439         167.9335749       0.02778227912         79.02247457        0.9844365923        -13.03584969
         3309340000       0.8143103254        -19.58321085         9.601273814         167.7523024       0.02819352592         78.85790169        0.9839685983        -13.23191067
         3359330000       0.8141965335        -19.87270491         9.596142267         167.5711983       0.02860411836         78.69349709        0.9834942586        -13.42779968
         3409320000        0.814081272        -20.16192203         9.590942145         167.3902648        0.0290140483         78.52926293        0.9830136064        -13.62351447
         3459310000       0.8139645508        -20.45085864         9.585673797         167.2095039       0.02942330772          78.3652014        0.9825266751        -13.81905284
         3509300000       0.8138463798        -20.73951117         9.580337578         167.0289178       0.02983188863         78.20131463        0.9820334985        -14.01441257
         3559290000       0.8137267689        -21.02787611         9.574933844         166.8485087       0.03023978312         78.03760475        0.9815341107        -14.20959148
         3609280000       0.8136057283        -21.31594993         9.569462956         166.6682786       0.03064698338          77.8740739        0.9810285461         -14.4045874
         3659270000       0.8134832682        -21.60372916         9.563925277         166.4882298       0.03105348165         77.71072416        0.9805168395        -14.59939817
         3709260000       0.8133593988        -21.89121032         9.558321175         166.3083642       0.03145927026         77.54755762        0.9799990259        -14.79402166
         3759250000       0.8132341304        -22.17838999          9.55265102          166.128684       0.03186434159         77.38457635        0.9794751407        -14.98845572
         3809240000       0.8131074736        -22.46526474         9.546915185         165.9491912       0.03226868814         77.22178241        0.9789452196        -15.18269827
         3859230000       0.8129794388        -22.75183118         9.541114047         165.7698878       0.03267230244         77.05917784        0.9784092985         -15.3767472
         3909220000       0.8128500365        -23.03808594         9.535247986         165.5907758       0.03307517713         76.89676465        0.9778674137        -15.57060043
         3959210000       0.8127192776        -23.32402568         9.529317385         165.4118573       0.03347730492         76.73454485        0.9773196018        -15.76425592
         4009200000       0.8125871726        -23.60964707         9.523322628         165.2331343       0.03387867859         76.57252043        0.9767658995        -15.95771161
         4059190000       0.8124537325        -23.89494683         9.517264104         165.0546087         0.034279291         76.41069336         0.976206344        -16.15096547
         4109180000       0.8123189681        -24.17992169         9.511142206         164.8762825       0.03467913511          76.2490656        0.9756409725        -16.34401551
         4159170000       0.8121828903        -24.46456839         9.504957325         164.6981576       0.03507820393         76.08763908        0.9750698228        -16.53685972
         4209160000       0.8120455102        -24.74888372         9.498709859         164.5202359       0.03547649056         75.92641572        0.9744929326        -16.72949613
         4259150000       0.8119068388        -25.03286447         9.492400208         164.3425194       0.03587398819         75.76539744        0.9739103401        -16.92192279
         4309140000       0.8117668873        -25.31650749         9.486028772           164.16501       0.03627069008         75.60458611        0.9733220836        -17.11413774
         4359130000       0.8116256669        -25.59980962         9.479595956         163.9877094       0.03666658957         75.44398361        0.9727282016        -17.30613906
         4409120000       0.8114831888        -25.88276776         9.473102166         163.8106196       0.03706168009         75.28359178        0.9721287331        -17.49792486
         4459110000       0.8113394644        -26.16537879         9.466547812         163.6337424       0.03745595515         75.12341248         0.971523717        -17.68949323
         4509100000        0.811194505        -26.44763966         9.459933304         163.4570796       0.03784940833         74.96344751        0.9709131925         -17.8808423
         4559090000       0.8110483221        -26.72954732         9.453259055          163.280633       0.03824203331         74.80369867        0.9702971992        -18.07197022
         4609080000        0.810900927        -27.01109876         9.446525482         163.1044045       0.03863382382         74.64416775        0.9696757766        -18.26287516
         4659070000       0.8107523314        -27.29229099         9.439733001         162.9283957       0.03902477372         74.48485651        0.9690489646        -18.45355529
         4709060000       0.8106025468        -27.57312105         9.432882032         162.7526084       0.03941487691          74.3257667        0.9684168033        -18.64400881
         4759050000       0.8104515847        -27.85358599         9.425972997         162.5770443       0.03980412739         74.16690005        0.9677793327        -18.83423394
         4809040000       0.8102994569        -28.13368292         9.419006318         162.4017053       0.04019251925         74.00825827        0.9671365935        -19.02422891
         4859030000        0.810146175        -28.41340894         9.411982422         162.2265928       0.04058004665         73.84984306         0.966488626        -19.21399197
         4909020000       0.8099917508         -28.6927612         9.404901735         162.0517088       0.04096670384         73.69165609         0.965835471        -19.40352139
         4959010000        0.809836196        -28.97173687         9.397764685         161.8770547       0.04135248514         73.53369902        0.9651771695        -19.59281547
         5009000000       0.8096795224        -29.25033315         9.390571703         161.7026322       0.04173738497          73.3759735        0.9645137625         -19.7818725
         5058990000       0.8095217419        -29.52854725          9.38332322          161.528443       0.04212139784         73.21848113         0.963845291         -19.9706908
         5108980000       0.8093628662        -29.80637644          9.37601967         161.3544887       0.04250451831         73.06122354        0.9631717966        -20.15926873
         5158970000       0.8092029073        -30.08381799         9.368661488         161.1807708       0.04288674106          72.9042023        0.9624933206        -20.34760464
         5208960000       0.8090418772         -30.3608692         9.361249108         161.0072909       0.04326806083         72.74741898        0.9618099046        -20.53569692
         5258950000       0.8088797876        -30.63752742          9.35378297         160.8340506       0.04364847246         72.59087513        0.9611215903        -20.72354394
         5308940000       0.8087166507        -30.91378999         9.346263511         160.6610514       0.04402797084         72.43457228        0.9604284195        -20.91114414
         5358930000       0.8085524783         -31.1896543         9.338691171         160.4882948         0.044406551         72.27851196        0.9597304343        -21.09849594
         5408920000       0.8083872825        -31.46511778         9.331066391         160.3157823         0.044784208         72.12269564        0.9590276765         -21.2855978
         5458910000       0.8082210752        -31.74017786         9.323389613         160.1435154       0.04516093701         71.96712481        0.9583201884        -21.47244819
         5508900000       0.8080538686        -32.01483201          9.31566128         159.9714956       0.04553673327         71.81180092        0.9576080122        -21.65904559
         5558890000       0.8078856747        -32.28907774         9.307881835         159.7997242       0.04591159213         71.65672543        0.9568911903         -21.8453885
         5608880000       0.8077165055        -32.56291255         9.300051725         159.6282028       0.04628550899         71.50189974        0.9561697649        -22.03147547
         5658870000       0.8075463731        -32.83633402         9.292171393         159.4569327       0.04665847934         71.34732526        0.9554437786        -22.21730502
         5708860000       0.8073752895        -33.10933971         9.284241287         159.2859152       0.04703049878         71.19300338        0.9547132738        -22.40287572
         5758850000       0.8072032669        -33.38192724         9.276261853         159.1151519       0.04740156296         71.03893547        0.9539782934        -22.58818615
         5808840000       0.8070303173        -33.65409424          9.26823354          158.944644       0.04777166763         70.88512287        0.9532388798        -22.77323491
         5858830000       0.8068564528        -33.92583837         9.260156794         158.7743928       0.04814080861         70.73156691        0.9524950758        -22.95802061
         5908820000       0.8066816855        -34.19715734         9.252032066         158.6043997       0.04850898182          70.5782689        0.9517469241         -23.1425419
         5958810000       0.8065060276        -34.46804884         9.243859805         158.4346659       0.04887618324         70.42523014        0.9509944676        -23.32679741
         6008800000        0.806329491        -34.73851064         9.235640459         158.2651928       0.04924240896         70.27245191        0.9502377491        -23.51078583
         6058790000       0.8061520878         -35.0085405          9.22737448         158.0959815       0.04960765512         70.11993546        0.9494768115        -23.69450585
         6108780000       0.8059738303        -35.27813623         9.219062317         157.9270335       0.04997191796         69.96768203        0.9487116977        -23.87795617
         6158770000       0.8057947303        -35.54729566          9.21070442         157.7583497       0.05033519381         69.81569283        0.9479424505        -24.06113552
         6208760000          0.8056148        -35.81601664         9.202301242         157.5899315       0.05069747905         69.66396908         0.947169113        -24.24404264
         6258750000       0.8054340514        -36.08429707         9.193853232         157.4217801       0.05105877018         69.51251196         0.946391728         -24.4266763
         6308740000       0.8052524967        -36.35213484         9.185360841         157.2538965       0.05141906375         69.36132263        0.9456103385        -24.60903529
         6358730000       0.8050701477        -36.61952791         9.176824521         157.0862821        0.0517783564         69.21040224        0.9448249875        -24.79111839
         6408720000       0.8048870165        -36.88647424         9.168244723         156.9189378       0.05213664485         69.05975192        0.9440357178        -24.97292442
         6458710000       0.8047031151        -37.15297183         9.159621896         156.7518648        0.0524939259         68.90937279        0.9432425724        -25.15445223
         6508700000       0.8045184554         -37.4190187         9.150956492         156.5850642       0.05285019643         68.75926593        0.9424455942        -25.33570067
         6558690000       0.8043330496         -37.6846129         9.142248962         156.4185371        0.0532054534         68.60943242        0.9416448262         -25.5166686
         6608680000       0.8041469093        -37.94975251         9.133499756         156.2522845       0.05355969385         68.45987332        0.9408403111        -25.69735493
         6658670000       0.8039600467        -38.21443564         9.124709324         156.0863075       0.05391291488         68.31058967        0.9400320918        -25.87775854
         6708660000       0.8037724736        -38.47866041         9.115878115         155.9206071       0.05426511369          68.1615825        0.9392202111        -26.05787839
         6758650000       0.8035842017          -38.742425         9.107006579         155.7551843       0.05461628756          68.0128528        0.9384047117        -26.23771339
         6808640000       0.8033952431        -39.00572758         9.098095165           155.59004       0.05496643383         67.86440156        0.9375856365        -26.41726253
         6858630000       0.8032056095        -39.26856637         9.089144322         155.4251754       0.05531554991         67.71622975        0.9367630279        -26.59652476
         6908620000       0.8030153126        -39.53093962         9.080154496         155.2605912       0.05566363332         67.56833833        0.9359369287        -26.77549911
         6958610000       0.8028243643         -39.7928456         9.071126136         155.0962885       0.05601068163         67.42072822        0.9351073814        -26.95418457
         7008600000       0.8026327762        -40.05428259         9.062059687         154.9322682       0.05635669249         67.27340035        0.9342744285        -27.13258018
         7058590000         0.80244056        -40.31524893         9.052955597         154.7685311       0.05670166363         67.12635561        0.9334381124        -27.31068499
         7108580000       0.8022477274        -40.57574297         9.043814311         154.6050781       0.05704559284         66.97959487        0.9325984754        -27.48849807
         7158570000         0.80205429        -40.83576308         9.034636273         154.4419102       0.05738847801         66.83311902        0.9317555599         -27.6660185
         7208560000       0.8018602594        -41.09530766         9.025421926         154.2790281       0.05773031709         66.68692889         0.930909408        -27.84324538
         7258550000       0.8016656472        -41.35437515         9.016171715         154.1164327       0.05807110808         66.54102531        0.9300600619        -28.02017784
         7308540000       0.8014704647        -41.61296401          9.00688608         153.9541248        0.0584108491         66.39540909        0.9292075635          -28.196815
         7358530000       0.8012747236        -41.87107272         8.997565464         153.7921052       0.05874953832         66.25008103        0.9283519549        -28.37315603
         7408520000       0.8010784352        -42.12869979         8.988210305         153.6303747       0.05908717396         66.10504192        0.9274932778        -28.54920009
         7458510000       0.8008816108        -42.38584376         8.978821045          153.468934       0.05942375434          65.9602925        0.9266315741        -28.72494637
         7508500000       0.8006842619        -42.64250319         8.969398119         153.3077839       0.05975927784         65.81583352        0.9257668852        -28.90039408
         7558490000       0.8004863997        -42.89867666         8.959941967         153.1469251       0.06009374292         65.67166571        0.9248992528        -29.07554243
         7608480000       0.8002880355        -43.15436281         8.950453023         152.9863584       0.06042714811         65.52778979        0.9240287183        -29.25039067
         7658470000       0.8000891805        -43.40956026         8.940931723         152.8260843       0.06075949198         65.38420644         0.923155323        -29.42493805
         7708460000       0.7998898457        -43.66426768           8.9313785         152.6661037        0.0610907732         65.24091635         0.922279108        -29.59918384
         7758450000       0.7996900424        -43.91848378         8.921793786         152.5064171       0.06142099051         65.09792017        0.9214001145        -29.77312733
         7808440000       0.7994897816        -44.17220726         8.912178013         152.3470252        0.0617501427         64.95521855        0.9205183834        -29.94676783
         7858430000       0.7992890742        -44.42543687          8.90253161         152.1879286       0.06207822863         64.81281213        0.9196339554        -30.12010464
         7908420000       0.7990879313        -44.67817139         8.892855006          152.029128       0.06240524724          64.6707015        0.9187468714        -30.29313712
         7958410000       0.7988863637        -44.93040961         8.883148627         151.8706239       0.06273119753         64.52888727        0.9178571717        -30.46586461
         8008400000       0.7986843823        -45.18215034         8.873412901          151.712417       0.06305607855         64.38737002        0.9169648969        -30.63828649
         8058390000       0.7984819979        -45.43339244          8.86364825         151.5545078       0.06337988945         64.24615031        0.9160700872        -30.81040213
         8108380000       0.7982792211        -45.68413477         8.853855098         151.3968968        0.0637026294          64.1052287        0.9151727828        -30.98221094
         8158370000       0.7980760628        -45.93437624         8.844033865         151.2395845       0.06402429768         63.96460571        0.9142730235        -31.15371234
         8208360000       0.7978725335        -46.18411576         8.834184973         151.0825716        0.0643448936         63.82428186        0.9133708493        -31.32490576
         8258350000       0.7976686437        -46.43335227         8.824308838         150.9258585       0.06466441654         63.68425766        0.9124662998        -31.49579065
         8308340000       0.7974644041        -46.68208475         8.814405877         150.7694456       0.06498286596         63.54453358        0.9115594145        -31.66636646
         8358330000        0.797259825         -46.9303122         8.804476507         150.6133335       0.06530024137         63.40511011        0.9106502329        -31.83663269
         8408320000       0.7970549169        -47.17803362         8.794521138         150.4575226       0.06561654232          63.2659877         0.909738794        -32.00658882
         8458310000         0.79684969        -47.42524807         8.784540185         150.3020134       0.06593176846         63.12716678        0.9088251369        -32.17623436
         8508300000       0.7966441547        -47.67195461         8.774534055         150.1468063       0.06624591948         62.98864779        0.9079093006        -32.34556885
         8558290000       0.7964383211        -47.91815233         8.764503159         149.9919016       0.06655899512         62.85043113        0.9069913236        -32.51459181
         8608280000       0.7962321994        -48.16384035         8.754447901         149.8372998        0.0668709952         62.71251719        0.9060712446         -32.6833028
         8658270000       0.7960257998         -48.4090178         8.744368687         149.6830013       0.06718191959         62.57490637        0.9051491019         -32.8517014
         8708260000       0.7958191321        -48.65368385          8.73426592         149.5290065        0.0674917682         62.43759903        0.9042249337        -33.01978719
         8758250000       0.7956122065        -48.89783767         8.724140001         149.3753156       0.06780054103         62.30059552        0.9032987779        -33.18755976
         8808240000       0.7954050327        -49.14147849         8.713991328         149.2219291       0.06810823811         62.16389617        0.9023706724        -33.35501873
         8858230000       0.7951976206        -49.38460553           8.7038203         149.0688472       0.06841485955         62.02750131        0.9014406549        -33.52216373
         8908220000         0.79498998        -49.62721804         8.693627311         148.9160703       0.06872040548         61.89141125        0.9005087628        -33.68899439
         8958210000       0.7947821205         -49.8693153         8.683412756         148.7635986       0.06902487613         61.75562629        0.8995750333        -33.85551038
         9008200000       0.7945740519        -50.11089661         8.673177025         148.6114325       0.06932827174          61.6201467        0.8986395036        -34.02171137
         9058190000       0.7943657836         -50.3519613         8.662920509         148.4595722       0.06963059264         61.48497275        0.8977022105        -34.18759704
         9108180000       0.7941573252         -50.5925087         8.652643595         148.3080179       0.06993183918         61.35010469        0.8967631907        -34.35316708
         9158170000       0.7939486861        -50.83253819         8.642346668           148.15677        0.0702320118         61.21554277        0.8958224807        -34.51842122
         9208160000       0.7937398757        -51.07204916         8.632030113         148.0058286       0.07053111097          61.0812872        0.8948801169        -34.68335917
         9258150000       0.7935309032        -51.31104101          8.62169431         147.8551939        0.0708291372         60.94733821        0.8939361353        -34.84798067
         9308140000       0.7933217779        -51.54951318          8.61133964         147.7048662       0.07112609107         60.81369599        0.8929905718        -35.01228548
         9358130000        0.793112509        -51.78746512          8.60096648         147.5548456       0.07142197321         60.68036073        0.8920434622        -35.17627337
         9408120000       0.7929031055         -52.0248963         8.590575205         147.4051323       0.07171678428          60.5473326        0.8910948419         -35.3399441
         9458110000       0.7926935765        -52.26180623         8.580166188         147.2557265       0.07201052502         60.41461175        0.8901447463        -35.50329748
         9508100000       0.7924839308        -52.49819443         8.569739801         147.1066282       0.07230319619         60.28219835        0.8891932105        -35.66633331
         9558090000       0.7922741775        -52.73406042         8.559296412         146.9578378       0.07259479861         60.15009251        0.8882402693         -35.8290514
         9608080000       0.7920643253        -52.96940378         8.548836389         146.8093552       0.07288533315         60.01829437        0.8872859573         -35.9914516
         9658070000       0.7918543828        -53.20422409         8.538360096         146.6611806       0.07317480071         59.88680402        0.8863303092        -36.15353373
         9708060000       0.7916443589        -53.43852093         8.527867895          146.513314       0.07346320227         59.75562158        0.8853733591        -36.31529766
         9758050000       0.7914342621        -53.67229394         8.517360148         146.3657556       0.07375053881         59.62474711        0.8844151411        -36.47674325
         9808040000        0.791224101        -53.90554276         8.506837211         146.2185055        0.0740368114          59.4941807        0.8834556889        -36.63787039
         9858030000       0.7910138838        -54.13826705         8.496299442         146.0715636       0.07432202112         59.36392241        0.8824950363        -36.79867896
         9908020000       0.7908036192        -54.37046649         8.485747193         145.9249301       0.07460616911         59.23397227        0.8815332167        -36.95916888
         9958010000       0.7905933153        -54.60214078         8.475180817          145.778605       0.07488925655         59.10433033        0.8805702631        -37.11934006
        1.0008e+010       0.7903829804        -54.83328965         8.464600662         145.6325883       0.07517128466         58.97499662        0.8796062086        -37.27919242
      1.005799e+010       0.7901726227        -55.06391284         8.454007075           145.48688        0.0754522547         58.84597113         0.878641086        -37.43872591
      1.010798e+010       0.7899622503         -55.2940101         8.443400402         145.3414801       0.07573216798         58.71725388        0.8776749276        -37.59794048
      1.015797e+010       0.7897518711        -55.52358121         8.432780984         145.1963887       0.07601102585         58.58884486         0.876707766         -37.7568361
      1.020796e+010       0.7895414932        -55.75262597         8.422149161         145.0516056       0.07628882968         58.46074404        0.8757396331        -37.91541273
      1.025795e+010       0.7893311243        -55.98114421         8.411505272         144.9071309       0.07656558091         58.33295139        0.8747705608        -38.07367037
      1.030794e+010       0.7891207724        -56.20913575         8.400849653         144.7629645         0.076841281         58.20546686        0.8738005808        -38.23160901
      1.035793e+010       0.7889104452        -56.43660045         8.390182635         144.6191064       0.07711593145         58.07829041        0.8728297245        -38.38922865
      1.040792e+010       0.7887001502        -56.66353817         8.379504551         144.4755565        0.0773895338         57.95142196        0.8718580231        -38.54652933
      1.045791e+010       0.7884898951        -56.88994882         8.368815729         144.3323147       0.07766208963         57.82486144        0.8708855075        -38.70351106
       1.05079e+010       0.7882796874         -57.1158323         8.358116495         144.1893809       0.07793360055         57.69860877        0.8699122085        -38.86017389
      1.055789e+010       0.7880695346        -57.34118854         8.347407173         144.0467551       0.07820406822         57.57266383        0.8689381567        -39.01651788
      1.060788e+010        0.787859444        -57.56601747         8.336688085         143.9044371       0.07847349431         57.44702654        0.8679633823        -39.17254307
      1.065787e+010       0.7876494229        -57.79031907          8.32595955         143.7624268       0.07874188056         57.32169676        0.8669879153        -39.32824955
      1.070786e+010       0.7874394785        -58.01409331         8.315221886         143.6207241       0.07900922871         57.19667437        0.8660117858         -39.4836374
      1.075785e+010        0.787229618        -58.23734018         8.304475406         143.4793288       0.07927554055         57.07195924        0.8650350232         -39.6387067
      1.080784e+010       0.7870198484         -58.4600597         8.293720424         143.3382409       0.07954081791          56.9475512         0.864057657        -39.79345757
      1.085783e+010       0.7868101768         -58.6822519         8.282957248         143.1974601       0.07980506263         56.82345011        0.8630797163        -39.94789011
      1.090782e+010       0.7866006101        -58.90391682         8.272186188         143.0569863       0.08006827662          56.6996558          0.86210123        -40.10200444
      1.095781e+010       0.7863911552        -59.12505453         8.261407547         142.9168193       0.08033046179         56.57616809         0.861122227        -40.25580071
       1.10078e+010       0.7861818188        -59.34566511         8.250621629         142.7769589       0.08059162008         56.45298679        0.8601427356        -40.40927904
      1.105779e+010       0.7859726076        -59.56574865         8.239828735         142.6374049       0.08085175348         56.33011171        0.8591627841        -40.56243959
      1.110778e+010       0.7857635284        -59.78530527         8.229029162         142.4981571       0.08111086399         56.20754264        0.8581824006        -40.71528253
      1.115777e+010       0.7855545877        -60.00433509         8.218223206         142.3592154       0.08136895367         56.08527936        0.8572016129        -40.86780802
      1.120776e+010        0.785345792        -60.22283826         8.207411162         142.2205794       0.08162602458         55.96332166        0.8562204484        -41.02001623
      1.125775e+010       0.7851371477        -60.44081493         8.196593319          142.082249       0.08188207881         55.84166929        0.8552389347        -41.17190736
      1.130774e+010       0.7849286611        -60.65826528         8.185769967         141.9442239        0.0821371185         55.72032202        0.8542570987        -41.32348161
      1.135773e+010       0.7847203387        -60.87518949         8.174941392         141.8065038       0.08239114579          55.5992796        0.8532749675        -41.47473917
      1.140772e+010       0.7845121865        -61.09158778         8.164107879         141.6690885       0.08264416287         55.47854177        0.8522925675        -41.62568026
      1.145771e+010       0.7843042108        -61.30746036         8.153269708         141.5319778       0.08289617194         55.35810826        0.8513099254        -41.77630512
       1.15077e+010       0.7840964176        -61.52280747         8.142427159         141.3951713       0.08314717524         55.23797879        0.8503270672        -41.92661396
      1.155769e+010       0.7838888129        -61.73762936          8.13158051         141.2586688       0.08339717503         55.11815309         0.849344019        -42.07660702
      1.160768e+010       0.7836814027        -61.95192628         8.120730034           141.12247       0.08364617358         54.99863085        0.8483608066        -42.22628456
      1.165767e+010       0.7834741928        -62.16569853         8.109876004         140.9865746       0.08389417321         54.87941178        0.8473774554        -42.37564683
      1.170766e+010       0.7832671891        -62.37894638         8.099018691         140.8509822       0.08414117624         54.76049558        0.8463939908         -42.5246941
      1.175765e+010       0.7830603972        -62.59167014         8.088158361         140.7156926       0.08438718504         54.64188191        0.8454104379        -42.67342663
      1.180764e+010       0.7828538229        -62.80387014          8.07729528         140.5807055       0.08463220198         54.52357047        0.8444268214         -42.8218447
      1.185763e+010       0.7826474717        -63.01554671         8.066429711         140.4460204       0.08487622946         54.40556092        0.8434431661        -42.96994862
      1.190762e+010       0.7824413491         -63.2267002         8.055561915         140.3116372       0.08511926991         54.28785291        0.8424594963        -43.11773866
      1.195761e+010       0.7822354606        -63.43733096          8.04469215         140.1775553       0.08536132577         54.17044611        0.8414758362        -43.26521513
       1.20076e+010       0.7820298117        -63.64743936         8.033820671         140.0437745        0.0856023995         54.05334016        0.8404922098        -43.41237835
      1.205759e+010       0.7818244075        -63.85702581         8.022947733         139.9102945       0.08584249359         53.93653469        0.8395086409        -43.55922862
      1.210758e+010       0.7816192534        -64.06609069         8.012073588         139.7771148       0.08608161055         53.82002935        0.8385251528        -43.70576628
      1.215757e+010       0.7814143546        -64.27463441         8.001198483          139.644235       0.08631975291         53.70382375         0.837541769        -43.85199166
      1.220756e+010       0.7812097161        -64.48265741         7.990322665         139.5116548        0.0865569232         53.58791751        0.8365585125        -43.99790509
      1.225755e+010       0.7810053431        -64.69016012         7.979446381         139.3793739         0.086793124         53.47231025        0.8355754061        -44.14350693
      1.230754e+010       0.7808012405        -64.89714298          7.96856987         139.2473917       0.08702835789         53.35700156        0.8345924725        -44.28879752
      1.235753e+010       0.7805974132        -65.10360647         7.957693374         139.1157079       0.08726262747         53.24199105         0.833609734        -44.43377722
      1.240752e+010       0.7803938662        -65.30955106         7.946817131         138.9843222       0.08749593535          53.1272783         0.832627213        -44.57844641
      1.245751e+010       0.7801906041        -65.51497722         7.935941374          138.853234       0.08772828418          53.0128629        0.8316449312        -44.72280544
       1.25075e+010       0.7799876317        -65.71988546         7.925066339          138.722443        0.0879596766         52.89874444        0.8306629106        -44.86685471
      1.255749e+010       0.7797849538        -65.92427629         7.914192254         138.5919487       0.08819011529         52.78492247        0.8296811727         -45.0105946
      1.260748e+010       0.7795825748        -66.12815023          7.90331935         138.4617507       0.08841960292         52.67139657        0.8286997386        -45.15402549
      1.265747e+010       0.7793804993         -66.3315078         7.892447853         138.3318486       0.08864814221         52.55816629        0.8277186297        -45.29714779
      1.270746e+010       0.7791787318        -66.53434956         7.881577986         138.2022419       0.08887573586          52.4452312        0.8267378667        -45.43996191
      1.275745e+010       0.7789772768        -66.73667606         7.870709973         138.0729301        0.0891023866         52.33259084        0.8257574704        -45.58246824
      1.280744e+010       0.7787761385        -66.93848785         7.859844031         137.9439129       0.08932809718         52.22024474        0.8247774612        -45.72466721
      1.285743e+010       0.7785753212        -67.13978552          7.84898038         137.8151897       0.08955287035         52.10819245        0.8237978594        -45.86655924
      1.290742e+010       0.7783748292        -67.34056965         7.838119234         137.6867601       0.08977670889          51.9964335         0.822818685        -46.00814475
      1.295741e+010       0.7781746666        -67.54084085         7.827260807         137.5586236       0.08999961558         51.88496741        0.8218399579        -46.14942418
       1.30074e+010       0.7779748376         -67.7405997         7.816405309         137.4307797       0.09022159322         51.77379371        0.8208616977        -46.29039797
      1.305739e+010       0.7777753461        -67.93984684          7.80555295         137.3032279       0.09044264462          51.6629119        0.8198839237        -46.43106656
      1.310738e+010       0.7775761961        -68.13858289         7.794703935         137.1759678        0.0906627726          51.5523215        0.8189066553        -46.57143039
      1.315737e+010       0.7773773917        -68.33680848         7.783858471         137.0489989       0.09088197999         51.44202201        0.8179299114        -46.71148993
      1.320736e+010       0.7771789365        -68.53452427         7.773016758         136.9223206       0.09110026964         51.33201294        0.8169537108        -46.85124564
      1.325735e+010       0.7769808345         -68.7317309         7.762178998         136.7959325        0.0913176444         51.22229377        0.8159780721        -46.99069797
      1.330734e+010       0.7767830894        -68.92842905         7.751345388          136.669834       0.09153410713         51.11286399        0.8150030137         -47.1298474
      1.335733e+010       0.7765857048        -69.12461939         7.740516125         136.5440246       0.09174966072         51.00372309        0.8140285538         -47.2686944
      1.340732e+010       0.7763886845        -69.32030259         7.729691402         136.4185038       0.09196430805         50.89487055        0.8130547103        -47.40723945
      1.345731e+010       0.7761920319        -69.51547937         7.718871411         136.2932711         0.092178052         50.78630585        0.8120815011        -47.54548303
       1.35073e+010       0.7759957505        -69.71015041         7.708056342          136.168326        0.0923908955         50.67802845        0.8111089438        -47.68342564
      1.355729e+010       0.7757998439        -69.90431643         7.697246383         136.0436679       0.09260284145         50.57003782        0.8101370556        -47.82106777
      1.360728e+010       0.7756043154        -70.09797815         7.686441719         135.9192963       0.09281389276         50.46233342        0.8091658539        -47.95840991
      1.365727e+010       0.7754091685        -70.29113629         7.675642534         135.7952106       0.09302405238         50.35491472        0.8081953556        -48.09545257
      1.370726e+010       0.7752144062         -70.4837916          7.66484901         135.6714103       0.09323332324         50.24778116        0.8072255775        -48.23219625
      1.375725e+010        0.775020032        -70.67594481         7.654061325         135.5478949       0.09344170827         50.14093219        0.8062565361        -48.36864146
      1.380724e+010        0.774826049        -70.86759668         7.643279657         135.4246638       0.09364921044         50.03436726         0.805288248        -48.50478872
      1.385723e+010       0.7746324602        -71.05874798         7.632504183         135.3017164        0.0938558327         49.92808581        0.8043207293        -48.64063855
      1.390722e+010       0.7744392689        -71.24939947         7.621735075         135.1790521       0.09406157802         49.82208728         0.803353996        -48.77619147
      1.395721e+010       0.7742464779        -71.43955192         7.610972505         135.0566705       0.09426644937          49.7163711        0.8023880639          -48.911448
       1.40072e+010       0.7740540903        -71.62920612         7.600216642          134.934571       0.09447044972          49.6109367        0.8014229488        -49.04640869
      1.405719e+010        0.773862109        -71.81836287         7.589467654         134.8127528       0.09467358206         49.50578351        0.8004586661        -49.18107405
      1.410718e+010       0.7736705368        -72.00702295         7.578725707         134.6912156       0.09487584937         49.40091094         0.799495231        -49.31544463
      1.415717e+010       0.7734793766        -72.19518719         7.567990964         134.5699587       0.09507725466         49.29631843        0.7985326586        -49.44952098
      1.420716e+010        0.773288631        -72.38285639         7.557263587         134.4489815       0.09527780091         49.19200538        0.7975709638        -49.58330363
      1.425715e+010       0.7730983029        -72.57003137         7.546543735         134.3282835       0.09547749113          49.0879712        0.7966101613        -49.71679314
      1.430714e+010       0.7729083949        -72.75671296         7.535831568          134.207864       0.09567632832         48.98421531        0.7956502657        -49.84999005
      1.435713e+010       0.7727189095          -72.942902         7.525127241         134.0877225        0.0958743155         48.88073711        0.7946912913        -49.98289493
      1.440712e+010       0.7725298494        -73.12859933         7.514430907         133.9678583       0.09607145568           48.777536        0.7937332522        -50.11550833
      1.445711e+010        0.772341217        -73.31380579          7.50374272         133.8482709       0.09626775188         48.67461139        0.7927761626        -50.24783081
       1.45071e+010       0.7721530148        -73.49852224          7.49306283         133.7289596       0.09646320711         48.57196266         0.791820036        -50.37986295
      1.455709e+010       0.7719652453        -73.68274954         7.482391385         133.6099239        0.0966578244         48.46958922        0.7908648863        -50.51160529
      1.460708e+010       0.7717779107        -73.86648856         7.471728532         133.4911631       0.09685160678         48.36749045        0.7899107269        -50.64305843
      1.465707e+010       0.7715910135        -74.04974016         7.461074416         133.3726767       0.09704455727         48.26566574        0.7889575709        -50.77422293
      1.470706e+010       0.7714045558        -74.23250524          7.45042918          133.254464       0.09723667891         48.16411448        0.7880054317        -50.90509936
      1.475705e+010       0.7712185399        -74.41478467         7.439792965         133.1365244       0.09742797472         48.06283604         0.787054322        -51.03568832
      1.480704e+010       0.7710329679        -74.59657935         7.429165912         133.0188573       0.09761844774         47.96182982        0.7861042547        -51.16599037
      1.485703e+010       0.7708478421        -74.77789017         7.418548157          132.901462       0.09780810101         47.86109518        0.7851552423        -51.29600611
      1.490702e+010       0.7706631645        -74.95871803         7.407939837          132.784338       0.09799693755          47.7606315        0.7842072973        -51.42573612
      1.495701e+010       0.7704789371        -75.13906385         7.397341085         132.6674845       0.09818496042         47.66043815         0.783260432          -51.555181
        1.5007e+010       0.7702951619        -75.31892853         7.386752036         132.5509011       0.09837217264          47.5605145        0.7823146584        -51.68434133
      1.505699e+010       0.7701118409        -75.49831299         7.376172818          132.434587       0.09855857726         47.46085993        0.7813699884        -51.81321771
      1.510698e+010        0.769928976        -75.67721817         7.365603562         132.3185416        0.0987441773         47.36147379        0.7804264339        -51.94181074
      1.515697e+010        0.769746569        -75.85564498         7.355044394         132.2027643       0.09892897582         47.26235545        0.7794840064        -52.07012101
      1.520696e+010       0.7695646219        -76.03359436         7.344495441         132.0872545       0.09911297584         47.16350428        0.7785427174        -52.19814914
      1.525695e+010       0.7693831363        -76.21106725         7.333956826         131.9720114       0.09929618041         47.06491962        0.7776025781        -52.32589571
      1.530694e+010        0.769202114        -76.38806459         7.323428672         131.8570345       0.09947859257         46.96660084        0.7766635997        -52.45336135
      1.535693e+010       0.7690215567        -76.56458733         7.312911099         131.7423231       0.09966021534         46.86854729        0.7757257931        -52.58054665
      1.540692e+010       0.7688414661        -76.74063642         7.302404226         131.6278766       0.09984105177         46.77075832        0.7747891692        -52.70745223
      1.545691e+010       0.7686618437        -76.91621283         7.291908171         131.5136944        0.1000211049          46.6732333        0.7738537385        -52.83407869
       1.55069e+010       0.7684826912        -77.09131751          7.28142305         131.3997756        0.1002003777         46.57597156        0.7729195116        -52.96042666
      1.555689e+010       0.7683040101        -77.26595142         7.270948976         131.2861199        0.1003788733         46.47897245        0.7719864988        -53.08649675
      1.560688e+010       0.7681258019        -77.44011555         7.260486063         131.1727263        0.1005565947         46.38223533        0.7710547104        -53.21228957
      1.565687e+010        0.767948068        -77.61381085         7.250034421         131.0595944        0.1007335449         46.28575954        0.7701241563        -53.33780574
      1.570686e+010       0.7677708099        -77.78703832         7.239594159         130.9467235        0.1009097269         46.18954441        0.7691948464        -53.46304589
      1.575685e+010       0.7675940289        -77.95979893         7.229165387         130.8341129        0.1010851437          46.0935893        0.7682667905        -53.58801064
      1.580684e+010       0.7674177264        -78.13209366         7.218748209         130.7217619        0.1012597985         45.99789354        0.7673399981        -53.71270061
      1.585683e+010       0.7672419037        -78.30392352         7.208342731         130.6096699        0.1014336941         45.90245647        0.7664144788        -53.83711642
      1.590682e+010       0.7670665621        -78.47528949         7.197949056         130.4978362        0.1016068337         45.80727743        0.7654902417        -53.96125871
      1.595681e+010       0.7668917027        -78.64619257         7.187567286         130.3862602        0.1017792201         45.71235576        0.7645672962        -54.08512809
       1.60068e+010       0.7667173268        -78.81663376         7.177197521         130.2749411        0.1019508565         45.61769078        0.7636456511        -54.20872521
      1.605679e+010       0.7665434356        -78.98661406          7.16683986         130.1638785        0.1021217458         45.52328185        0.7627253153        -54.33205069
      1.610678e+010       0.7663700302        -79.15613448           7.1564944         130.0530714        0.1022918911         45.42912828        0.7618062977        -54.45510516
      1.615677e+010       0.7661971116        -79.32519604         7.146161237         129.9425194        0.1024612953         45.33522941        0.7608886067        -54.57788926
      1.620676e+010       0.7660246809        -79.49379974         7.135840465         129.8322217        0.1026299614         45.24158457        0.7599722508        -54.70040362
      1.625675e+010       0.7658527392         -79.6619466         7.125532179         129.7221777        0.1027978924         45.14819309        0.7590572384        -54.82264887
      1.630674e+010       0.7656812874        -79.82963764         7.115236468         129.6123866        0.1029650914         45.05505431        0.7581435776        -54.94462566
      1.635673e+010       0.7655103265        -79.99687389         7.104953423         129.5028479        0.1031315612         44.96216754        0.7572312765        -55.06633462
      1.640672e+010       0.7653398573        -80.16365637         7.094683133         129.3935608        0.1032973048         44.86953211         0.756320343        -55.18777638
      1.645671e+010       0.7651698809        -80.32998611         7.084425686         129.2845247        0.1034623253         44.77714736        0.7554107848        -55.30895159
       1.65067e+010        0.765000398        -80.49586413         7.074181166         129.1757389        0.1036266257          44.6850126        0.7545026096        -55.42986089
      1.655669e+010       0.7648314094        -80.66129148          7.06394966         129.0672028        0.1037902087         44.59312717         0.753595825        -55.55050492
      1.660668e+010        0.764662916        -80.82626919         7.053731249         128.9589155        0.1039530775         44.50149038        0.7526904382        -55.67088432
      1.665667e+010       0.7644949185         -80.9907983         7.043526017         128.8508766         0.104115235         44.41010156        0.7517864567        -55.79099973
      1.670666e+010       0.7643274176        -81.15487984         7.033334043         128.7430853        0.1042766841         44.31896004        0.7508838875         -55.9108518
      1.675665e+010       0.7641604141        -81.31851487         7.023155407         128.6355409        0.1044374277         44.22806513        0.7499827376        -56.03044117
      1.680664e+010       0.7639939085        -81.48170442         7.012990187         128.5282427        0.1045974689         44.13741616        0.7490830139        -56.14976848
      1.685663e+010       0.7638279017        -81.64444955         7.002838459         128.4211901        0.1047568105         44.04701245        0.7481847231        -56.26883439
      1.690662e+010        0.763662394         -81.8067513         6.992700299         128.3143824        0.1049154554         43.95685331         0.747287872        -56.38763952
      1.695661e+010       0.7634973862        -81.96861072         6.982575781         128.2078189        0.1050734067         43.86693808         0.746392467        -56.50618454
       1.70066e+010       0.7633328788        -82.13002888         6.972464977          128.101499        0.1052306671         43.77726607        0.7454985146        -56.62447009
      1.705659e+010       0.7631688722        -82.29100682          6.96236796         127.9954219        0.1053872396         43.68783661        0.7446060209        -56.74249681
      1.710658e+010       0.7630053671         -82.4515456           6.9522848          127.889587        0.1055431272           43.598649        0.7437149922        -56.86026535
      1.715657e+010       0.7628423638        -82.61164628         6.942215565         127.7839935        0.1056983326         43.50970258        0.7428254345        -56.97777636
      1.720656e+010       0.7626798628        -82.77130992         6.932160324          127.678641        0.1058528588         43.42099665        0.7419373538        -57.09503049
      1.725655e+010       0.7625178645        -82.93053759         6.922119144         127.5735285        0.1060067087         43.33253055        0.7410507558        -57.21202839
      1.730654e+010       0.7623563693        -83.08933034          6.91209209         127.4686555        0.1061598852         43.24430358        0.7401656463        -57.32877069
      1.735653e+010       0.7621953776        -83.24768925         6.902079225         127.3640213        0.1063123911         43.15631508        0.7392820308        -57.44525807
      1.740652e+010       0.7620348896        -83.40561538         6.892080614         127.2596252        0.1064642292         43.06856435        0.7383999148        -57.56149115
      1.745651e+010       0.7618749058        -83.56310979         6.882096319         127.1554665        0.1066154025         42.98105071        0.7375193037        -57.67747059
       1.75065e+010       0.7617154263        -83.72017356         6.872126399         127.0515445        0.1067659138          42.8937735        0.7366402027        -57.79319705
      1.755649e+010       0.7615564514        -83.87680775         6.862170916         126.9478586        0.1069157659         42.80673201         0.735762617        -57.90867116
      1.760648e+010       0.7613979814        -84.03301345         6.852229927         126.8444081        0.1070649617         42.71992558        0.7348865517        -58.02389358
      1.765647e+010       0.7612400165        -84.18879171          6.84230349         126.7411922         0.107213504         42.63335353        0.7340120116        -58.13886496
      1.770646e+010       0.7610825568        -84.34414362         6.832391661         126.6382104        0.1073613956         42.54701516        0.7331390016        -58.25358594
      1.775645e+010       0.7609256025        -84.49907025         6.822494496          126.535462        0.1075086394         42.46090981        0.7322675264        -58.36805718
      1.780644e+010       0.7607691538        -84.65357267         6.812612048         126.4329462        0.1076552381         42.37503679        0.7313975907        -58.48227932
      1.785643e+010       0.7606132107        -84.80765197         6.802744371         126.3306623        0.1078011945         42.28939542         0.730529199        -58.59625302
      1.790642e+010       0.7604577733        -84.96130921         6.792891517         126.2286098        0.1079465114         42.20398502        0.7296623556        -58.70997891
      1.795641e+010       0.7603028418        -85.11454549         6.783053536         126.1267879        0.1080911917         42.11880492        0.7287970649        -58.82345766
       1.80064e+010       0.7601484161        -85.26736186         6.773230479          126.025196        0.1082352381         42.03385443        0.7279333311         -58.9366899
      1.805639e+010       0.7599944963        -85.41975943         6.763422394         125.9238333        0.1083786533         41.94913288        0.7270711584        -59.04967629
      1.810638e+010       0.7598410824        -85.57173925          6.75362933         125.8226992        0.1085214401         41.86463958        0.7262105507        -59.16241748
      1.815637e+010       0.7596881743        -85.72330243         6.743851333          125.721793        0.1086636014         41.78037386        0.7253515121         -59.2749141
      1.820636e+010        0.759535772        -85.87445003         6.734088449         125.6211141        0.1088051397         41.69633505        0.7244940463        -59.38716681
      1.825635e+010       0.7593838755        -86.02518313         6.724340723         125.5206617        0.1089460579         41.61252246         0.723638157        -59.49917626
      1.830634e+010       0.7592324847        -86.17550283         6.714608198         125.4204352        0.1090863587         41.52893541         0.722783848        -59.61094309
      1.835633e+010       0.7590815994         -86.3254102         6.704890918          125.320434        0.1092260447         41.44557324        0.7219311227        -59.72246794
      1.840632e+010       0.7589312196        -86.47490632         6.695188924         125.2206572        0.1093651189         41.36243527        0.7210799847        -59.83375147
      1.845631e+010       0.7587813451        -86.62399228         6.685502258         125.1211043        0.1095035837         41.27952082        0.7202304372        -59.94479432
       1.85063e+010       0.7586319757        -86.77266916          6.67583096         125.0217747        0.1096414419         41.19682922        0.7193824837        -60.05559713
      1.855629e+010       0.7584831113        -86.92093804         6.666175067         124.9226675        0.1097786963         41.11435979        0.7185361273        -60.16616054
      1.860628e+010       0.7583347516        -87.06880001          6.65653462         124.8237822        0.1099153494         41.03211187         0.717691371         -60.2764852
      1.865627e+010       0.7581868965        -87.21625615         6.646909655          124.725118        0.1100514041         40.95008478        0.7168482179        -60.38657176
      1.870626e+010       0.7580395457        -87.36330753         6.637300207         124.6266744        0.1101868628         40.86827784         0.716006671        -60.49642085
      1.875625e+010       0.7578926989        -87.50995526         6.627706314         124.5284506        0.1103217283         40.78669039        0.7151667331        -60.60603311
      1.880624e+010       0.7577463559        -87.65620039         6.618128008         124.4304459        0.1104560032         40.70532176         0.714328407         -60.7154092
      1.885623e+010       0.7576005164        -87.80204403         6.608565325         124.3326598        0.1105896902         40.62417128        0.7134916952        -60.82454974
      1.890622e+010       0.7574551801        -87.94748725         6.599018296         124.2350915        0.1107227919         40.54323827        0.7126566006        -60.93345538
      1.895621e+010       0.7573103466        -88.09253114         6.589486954         124.1377403        0.1108553109         40.46252208        0.7118231255        -61.04212676
       1.90062e+010       0.7571660156        -88.23717677          6.57997133         124.0406056        0.1109872499         40.38202203        0.7109912724        -61.15056451
      1.905619e+010       0.7570221868        -88.38142523         6.570471453         123.9436868        0.1111186113         40.30173746        0.7101610436        -61.25876928
      1.910618e+010       0.7568788597         -88.5252776         6.560987354         123.8469831        0.1112493979         40.22166771        0.7093324415        -61.36674169
      1.915617e+010       0.7567360341        -88.66873497         6.551519061          123.750494        0.1113796121          40.1418121        0.7085054683         -61.4744824
      1.920616e+010       0.7565937094         -88.8117984         6.542066601         123.6542187        0.1115092567         40.06216998         0.707680126        -61.58199202
      1.925615e+010       0.7564518854        -88.95446898         6.532630003         123.5581565        0.1116383341         39.98274069        0.7068564167         -61.6892712
      1.930614e+010       0.7563105614         -89.0967478         6.523209291         123.4623069        0.1117668469         39.90352355        0.7060343425        -61.79632057
      1.935613e+010       0.7561697371        -89.23863592         6.513804491         123.3666691        0.1118947976         39.82451792        0.7052139051        -61.90314076
      1.940612e+010        0.756029412        -89.38013443         6.504415628         123.2712426        0.1120221889         39.74572313        0.7043951065        -62.00973241
      1.945611e+010       0.7558895857        -89.52124441         6.495042726         123.1760265        0.1121490232         39.66713852        0.7035779484        -62.11609614
       1.95061e+010       0.7557502576        -89.66196693         6.485685807         123.0810204         0.112275303         39.58876344        0.7027624324        -62.22223259
      1.955609e+010       0.7556114272        -89.80230307         6.476344895         122.9862235        0.1124010309         39.51059723        0.7019485601        -62.32814238
      1.960608e+010       0.7554730941        -89.94225391          6.46702001         122.8916352        0.1125262094         39.43263924        0.7011363332        -62.43382614
      1.965607e+010       0.7553352576        -90.08182051         6.457711173         122.7972548        0.1126508409          39.3548888        0.7003257531        -62.53928451
      1.970606e+010       0.7551979172        -90.22100396         6.448418405         122.7030816         0.112774928         39.27734527        0.6995168212         -62.6445181
      1.975605e+010       0.7550610724        -90.35980533         6.439141725         122.6091151        0.1128984731         39.20000799        0.6987095388        -62.74952755
      1.980604e+010       0.7549247226        -90.49822568         6.429881151         122.5153546        0.1130214787         39.12287632        0.6979039072        -62.85431347
      1.985603e+010       0.7547888671        -90.63626609         6.420636701         122.4217993        0.1131439473          39.0459496        0.6970999276        -62.95887649
      1.990602e+010       0.7546535055        -90.77392764         6.411408394         122.3284488        0.1132658812         38.96922718        0.6962976011        -63.06321724
      1.995601e+010       0.7545186371        -90.91121138         6.402196244         122.2353022        0.1133872831         38.89270842        0.6954969288        -63.16733633
        2.0006e+010       0.7543842612         -91.0481184         6.393000269         122.1423591        0.1135081552         38.81639267        0.6946979118        -63.27123438
      2.005599e+010       0.7542503772        -91.18464975         6.383820482         122.0496187           0.1136285         38.74027929        0.6939005509        -63.37491202
      2.010598e+010       0.7541169845         -91.3208065           6.3746569         121.9570803        0.1137483199         38.66436763         0.693104847        -63.47836986
      2.015597e+010       0.7539840824        -91.45658972         6.365509535         121.8647435        0.1138676173         38.58865704        0.6923108009        -63.58160851
      2.020596e+010       0.7538516702        -91.59200047         6.356378402         121.7726074        0.1139863947          38.5131469        0.6915184135         -63.6846286
      2.025595e+010       0.7537197473        -91.72703982         6.347263512         121.6806715        0.1141046543         38.43783654        0.6907276854        -63.78743074
      2.030594e+010        0.753588313        -91.86170882         6.338164877         121.5889351        0.1142223986         38.36272535        0.6899386173        -63.89001554
      2.035593e+010       0.7534573665        -91.99600854         6.329082509         121.4973977          0.11433963         38.28781268        0.6891512096        -63.99238362
      2.040592e+010       0.7533269071        -92.12994004         6.320016418         121.4060585        0.1144563508         38.21309789         0.688365463        -64.09453558
      2.045591e+010       0.7531969342        -92.26350437         6.310966615         121.3149169        0.1145725633         38.13858034         0.687581378        -64.19647204
       2.05059e+010        0.753067447        -92.39670259         6.301933109         121.2239723        0.1146882699         38.06425941        0.6867989548         -64.2981936
      2.055589e+010       0.7529384447        -92.52953576         6.292915909          121.133224        0.1148034729         37.99013447        0.6860181939        -64.39970088
      2.060588e+010       0.7528099266        -92.66200493         6.283915023         121.0426715        0.1149181747         37.91620487        0.6852390956        -64.50099447
      2.065587e+010       0.7526818919        -92.79411115         6.274930459         120.9523141        0.1150323775         37.84246999        0.6844616601        -64.60207499
      2.070586e+010       0.7525543398        -92.92585548         6.265962224         120.8621512        0.1151460837         37.76892921        0.6836858876        -64.70294304
      2.075585e+010       0.7524272696        -93.05723896         6.257010324         120.7721821        0.1152592955         37.69558188        0.6829117782        -64.80359922
      2.080584e+010       0.7523006805        -93.18826264         6.248074766         120.6824063        0.1153720153          37.6224274         0.682139332        -64.90404413
      2.085583e+010       0.7521745716        -93.31892758         6.239155555          120.592823        0.1154842453         37.54946513         0.681368549        -65.00427837
      2.090582e+010       0.7520489423         -93.4492348         6.230252695         120.5034317        0.1155959877         37.47669445        0.6805994293        -65.10430254
      2.095581e+010       0.7519237915        -93.57918537         6.221366191         120.4142318        0.1157072449         37.40411474        0.6798319727        -65.20411725
       2.10058e+010       0.7517991186        -93.70878032         6.212496048         120.3252226         0.115818019         37.33172539        0.6790661791        -65.30372308
      2.105579e+010       0.7516749226        -93.83802069         6.203642267         120.2364035        0.1159283124         37.25952576        0.6783020483        -65.40312062
      2.110578e+010       0.7515512028        -93.96690752         6.194804853          120.147774        0.1160381272         37.18751524        0.6775395802        -65.50231049
      2.115577e+010       0.7514279582        -94.09544184         6.185983806         120.0593333        0.1161474656         37.11569322        0.6767787744        -65.60129326
      2.120576e+010       0.7513051881        -94.22362471         6.177179129         119.9710809          0.11625633         37.04405908        0.6760196306        -65.70006953
      2.125575e+010       0.7511828916        -94.35145714         6.168390823         119.8830161        0.1163647223         36.97261222        0.6752621485        -65.79863988
      2.130574e+010       0.7510610677        -94.47894017         6.159618889         119.7951384         0.116472645         36.90135201        0.6745063277        -65.89700491
      2.135573e+010       0.7509397156        -94.60607484         6.150863326         119.7074472        0.1165801001         36.83027785        0.6737521676         -65.9951652
      2.140572e+010       0.7508188345        -94.73286216         6.142124135         119.6199418        0.1166870898         36.75938912        0.6729996678        -66.09312135
      2.145571e+010       0.7506984234        -94.85930318         6.133401315         119.5326216        0.1167936163         36.68868523        0.6722488278        -66.19087392
       2.15057e+010       0.7505784814        -94.98539891         6.124694865          119.445486        0.1168996818         36.61816557        0.6714996469        -66.28842351
      2.155569e+010       0.7504590076        -95.11115037         6.116004782         119.3585344        0.1170052883         36.54782953        0.6707521245        -66.38577069
      2.160568e+010       0.7503400011         -95.2365586         6.107331065         119.2717663         0.117110438         36.47767651        0.6700062599        -66.48291606
      2.165567e+010        0.750221461        -95.36162461         6.098673711          119.185181        0.1172151331          36.4077059        0.6692620525        -66.57986018
      2.170566e+010       0.7501033864        -95.48634942         6.090032717         119.0987779        0.1173193756         36.33791712        0.6685195014        -66.67660363
      2.175565e+010       0.7499857762        -95.61073404         6.081408079         119.0125564        0.1174231677         36.26830956        0.6677786059        -66.77314699
      2.180564e+010       0.7498686297         -95.7347795         6.072799794          118.926516        0.1175265115         36.19888262         0.667039365        -66.86949083
      2.185563e+010       0.7497519457        -95.85848679         6.064207857         118.8406559         0.117629409         36.12963571         0.666301778        -66.96563573
      2.190562e+010       0.7496357235        -95.98185695         6.055632263         118.7549758        0.1177318624         36.06056823        0.6655658439        -67.06158226
      2.195561e+010        0.749519962        -96.10489096         6.047073007         118.6694748        0.1178338737          35.9916796        0.6648315617        -67.15733099
       2.20056e+010       0.7494046603        -96.22758985         6.038530084         118.5841526         0.117935445         35.92296923        0.6640989304        -67.25288248
      2.205559e+010       0.7492898173        -96.34995461         6.030003487         118.4990084        0.1180365783         35.85443652        0.6633679491         -67.3482373
      2.210558e+010       0.7491754322        -96.47198625         6.021493209         118.4140417        0.1181372757         35.78608088        0.6626386165        -67.44339603
      2.215557e+010       0.7490615039        -96.59368577         6.012999245         118.3292518        0.1182375392         35.71790174        0.6619109317        -67.53835922
      2.220556e+010       0.7489480315        -96.71505418         6.004521586         118.2446383        0.1183373708         35.64989851        0.6611848934        -67.63312744
      2.225555e+010        0.748835014        -96.83609245         5.996060226         118.1602006        0.1184367726          35.5820706        0.6604605004        -67.72770124
      2.230554e+010       0.7487224504        -96.95680161         5.987615155          118.075938        0.1185357466         35.51441744        0.6597377517         -67.8220812
      2.235553e+010       0.7486103396        -97.07718262         5.979186365         117.9918499        0.1186342947         35.44693844        0.6590166457        -67.91626786
      2.240552e+010       0.7484986808         -97.1972365         5.970773849         117.9079359         0.118732419         35.37963303        0.6582971814        -68.01026178
      2.245551e+010       0.7483874728        -97.31696422         5.962377596         117.8241953        0.1188301214         35.31250063        0.6575793574        -68.10406353
       2.25055e+010       0.7482767148        -97.43636677         5.953997597         117.7406276         0.118927404         35.24554067        0.6568631723        -68.19767365
      2.255549e+010       0.7481664055        -97.55544514         5.945633842         117.6572321        0.1190242686         35.17875257        0.6561486247        -68.29109269
      2.260548e+010       0.7480565442        -97.67420032         5.937286321         117.5740083        0.1191207173         35.11213576        0.6554357131        -68.38432121
      2.265547e+010       0.7479471297        -97.79263327         5.928955023         117.4909557        0.1192167519         35.04568968        0.6547244363        -68.47735976
      2.270546e+010       0.7478381609        -97.91074499         5.920639938         117.4080736        0.1193123745         34.97941375        0.6540147926        -68.57020888
      2.275545e+010        0.747729637        -98.02853644         5.912341053         117.3253616        0.1194075869         34.91330741        0.6533067805        -68.66286912
      2.280544e+010       0.7476215568         -98.1460086         5.904058359          117.242819        0.1195023911          34.8473701        0.6526003985        -68.75534103
      2.285543e+010       0.7475139193        -98.26316245         5.895791841         117.1604453         0.119596789         34.78160124         0.651895645        -68.84762515
      2.290542e+010       0.7474067235        -98.37999895         5.887541489         117.0782399        0.1196907825         34.71600028        0.6511925184        -68.93972202
      2.295541e+010       0.7472999683        -98.49651908          5.87930729         116.9962022        0.1197843735         34.65056667        0.6504910171        -69.03163218
       2.30054e+010       0.7471936527        -98.61272379         5.871089231         116.9143318        0.1198775638         34.58529983        0.6497911393        -69.12335617
      2.305539e+010       0.7470877757        -98.72861406         5.862887298          116.832628        0.1199703554         34.52019922        0.6490928835        -69.21489453
      2.310538e+010       0.7469823361        -98.84419084         5.854701478         116.7510903          0.12006275         34.45526427        0.6483962478         -69.3062478
      2.315537e+010        0.746877333        -98.95945509         5.846531757         116.6697182        0.1201547497         34.39049444        0.6477012306         -69.3974165
      2.320536e+010       0.7467727652        -99.07440777         5.838378121          116.588511        0.1202463562         34.32588917          0.64700783        -69.48840118
      2.325535e+010       0.7466686318        -99.18904983         5.830240556         116.5074683        0.1203375713         34.26144792        0.6463160442        -69.57920235
      2.330534e+010       0.7465649317        -99.30338223         5.822119048         116.4265895         0.120428397         34.19717013        0.6456258715        -69.66982057
      2.335533e+010       0.7464616637        -99.41740592          5.81401358          116.345874         0.120518835         34.13305526        0.6449373099        -69.76025634
      2.340532e+010       0.7463588269        -99.53112184         5.805924138         116.2653213        0.1206088871         34.06910276        0.6442503576         -69.8505102
      2.345531e+010       0.7462564201        -99.64453095         5.797850706         116.1849309        0.1206985552          34.0053121        0.6435650126        -69.94058267
       2.35053e+010       0.7461544424        -99.75763418         5.789793268         116.1047022         0.120787841         33.94168271         0.642881273        -70.03047428
      2.355529e+010       0.7460528925        -99.87043247         5.781751809         116.0246347        0.1208767464         33.87821408         0.642199137        -70.12018555
      2.360528e+010       0.7459517696        -99.98292677         5.773726311         115.9447279        0.1209652731         33.81490565        0.6415186024          -70.209717
      2.365527e+010       0.7458510723         -100.095118         5.765716759         115.8649811         0.121053423          33.7517569        0.6408396673        -70.29906915
      2.370526e+010       0.7457507998        -100.2070071         5.757723136         115.7853939        0.1211411977         33.68876728        0.6401623296        -70.38824251
      2.375525e+010       0.7456509509        -100.3185951         5.749745424         115.7059657         0.121228599         33.62593626        0.6394865874         -70.4772376
      2.380524e+010       0.7455515246        -100.4298827         5.741783605         115.6266961        0.1213156287         33.56326331        0.6388124385        -70.56605494
      2.385523e+010       0.7454525197         -100.540871         5.733837664         115.5475844        0.1214022885          33.5007479        0.6381398808        -70.65469505
      2.390522e+010       0.7453539351         -100.651561          5.72590758         115.4686302        0.1214885802         33.43838951        0.6374689123        -70.74315842
      2.395521e+010       0.7452557699        -100.7619534         5.717993337         115.3898329        0.1215745055         33.37618759        0.6367995307        -70.83144557
       2.40052e+010       0.7451580228        -100.8720493         5.710094917          115.311192        0.1216600661         33.31414164         0.636131734        -70.91955701
      2.405519e+010       0.7450606929        -100.9818495         5.702212299          115.232707        0.1217452636         33.25225112        0.6354655199        -71.00749324
      2.410518e+010        0.744963779         -101.091355         5.694345467         115.1543774        0.1218300999         33.19051551        0.6348008863        -71.09525478
      2.415517e+010         0.74486728        -101.2005666           5.6864944         115.0762025        0.1219145766          33.1289343        0.6341378308        -71.18284212
      2.420516e+010       0.7447711948        -101.3094854          5.67865908          114.998182        0.1219986954         33.06750695        0.6334763514        -71.27025577
      2.425515e+010       0.7446755224        -101.4181122         5.670839487         114.9203153        0.1220824579         33.00623297        0.6328164457        -71.35749623
      2.430514e+010       0.7445802617        -101.5264478         5.663035601         114.8426019        0.1221658659         32.94511182        0.6321581115        -71.44456399
      2.435513e+010       0.7444854115        -101.6344933         5.655247403         114.7650413         0.122248921           32.884143        0.6315013464        -71.53145955
      2.440512e+010       0.7443909707        -101.7422495         5.647474873         114.6876329        0.1223316248           32.823326        0.6308461481        -71.61818341
      2.445511e+010       0.7442969384        -101.8497173          5.63971799         114.6103763         0.122413979         32.76266029        0.6301925143        -71.70473607
       2.45051e+010       0.7442033133        -101.9568976         5.631976734         114.5332709        0.1224959853         32.70214539        0.6295404427        -71.79111802
      2.455509e+010       0.7441100944        -102.0637914         5.624251084         114.4563163        0.1225776452         32.64178077        0.6288899309        -71.87732974
      2.460508e+010       0.7440172806        -102.1703994         5.616541019         114.3795119        0.1226589604         32.58156593        0.6282409765        -71.96337173
      2.465507e+010       0.7439248707        -102.2767226         5.608846518         114.3028572        0.1227399325         32.52150037        0.6275935771        -72.04924448
      2.470506e+010       0.7438328638        -102.3827619         5.601167561         114.2263518         0.122820563         32.46158359        0.6269477303        -72.13494847
      2.475505e+010       0.7437412586        -102.4885181         5.593504125          114.149995        0.1229008537         32.40181508        0.6263034336        -72.22048419
      2.480504e+010       0.7436500541        -102.5939922          5.58585619         114.0737866        0.1229808061         32.34219434        0.6256606847        -72.30585212
      2.485503e+010       0.7435592492         -102.699185         5.578223732         113.9977258        0.1230604217         32.28272089         0.625019481        -72.39105274
      2.490502e+010       0.7434688428        -102.8040974         5.570606731         113.9218123        0.1231397022         32.22339422          0.62437982        -72.47608654
      2.495501e+010       0.7433788338        -102.9087303         5.563005165         113.8460455        0.1232186491         32.16421383        0.6237416993        -72.56095399
        2.5005e+010       0.7432892211        -103.0130846          5.55541901          113.770425         0.123297264         32.10517924        0.6231051163        -72.64565557
      2.505499e+010       0.7432000036         -103.117161         5.547848245         113.6949503        0.1233755483         32.04628996        0.6224700686        -72.73019177
      2.510498e+010       0.7431111802        -103.2209606         5.540292847         113.6196208        0.1234535038         31.98754549        0.6218365536        -72.81456304
      2.515497e+010       0.7430227498        -103.3244841         5.532752794         113.5444362        0.1235311319         31.92894535        0.6212045687        -72.89876986
      2.520496e+010       0.7429347113        -103.4277324         5.525228062         113.4693958        0.1236084341         31.87048905        0.6205741113        -72.98281272
      2.525495e+010       0.7428470636        -103.5307064         5.517718628         113.3944993        0.1236854119         31.81217611         0.619945179        -73.06669207
      2.530494e+010       0.7427598056        -103.6334069         5.510224469          113.319746         0.123762067         31.75400604        0.6193177691        -73.15040838
      2.535493e+010       0.7426729362        -103.7358349         5.502745562         113.2451357        0.1238384007         31.69597837        0.6186918789        -73.23396212
      2.540492e+010       0.7425864543         -103.837991         5.495281883         113.1706677        0.1239144146         31.63809261         0.618067506        -73.31735376
      2.545491e+010       0.7425003588        -103.9398763         5.487833409         113.0963417        0.1239901101         31.58034829        0.6174446476        -73.40058377
       2.55049e+010       0.7424146487        -104.0414915         5.480400116          113.022157        0.1240654889         31.52274493        0.6168233011        -73.48365259
      2.555489e+010       0.7423293228        -104.1428376         5.472981979         112.9481134        0.1241405522         31.46528205        0.6162034638         -73.5665607
      2.560488e+010         0.74224438        -104.2439152         5.465578976         112.8742102        0.1242153017         31.40795919        0.6155851332        -73.64930855
      2.565487e+010       0.7421598192        -104.3447254         5.458191081          112.800447        0.1242897387         31.35077586        0.6149683064         -73.7318966
      2.570486e+010       0.7420756394        -104.4452688         5.450818271         112.7268233        0.1243638647         31.29373161         0.614352981        -73.81432531
      2.575485e+010       0.7419918395        -104.5455465         5.443460521         112.6533388        0.1244376813         31.23682596         0.613739154        -73.89659513
      2.580484e+010       0.7419084183        -104.6455591         5.436117806         112.5799928        0.1245111897         31.18005845        0.6131268229        -73.97870652
      2.585483e+010       0.7418253748        -104.7453075         5.428790102          112.506785        0.1245843915         31.12342861        0.6125159848        -74.06065992
      2.590482e+010       0.7417427078        -104.8447926         5.421477384         112.4337149         0.124657288         31.06693597        0.6119066372         -74.1424558
      2.595481e+010       0.7416604164        -104.9440152         5.414179627          112.360782        0.1247298808         31.01058008        0.6112987772        -74.22409459
       2.60048e+010       0.7415784993         -105.042976         5.406896807         112.2879858        0.1248021712         30.95436048        0.6106924021        -74.30557674
      2.605479e+010       0.7414969556         -105.141676         5.399628897          112.215326        0.1248741606          30.8982767        0.6100875091         -74.3869027
      2.610478e+010       0.7414157841         -105.240116         5.392375873          112.142802        0.1249458504          30.8423283        0.6094840955        -74.46807292
      2.615477e+010       0.7413349837        -105.3382967         5.385137709         112.0704134         0.125017242          30.7865148        0.6088821585        -74.54908783
      2.620476e+010       0.7412545534         -105.436219         5.377914381         111.9981598        0.1250883368         30.73083577        0.6082816953        -74.62994789
      2.625475e+010       0.7411744921        -105.5338837         5.370705861         111.9260406        0.1251591362         30.67529075        0.6076827032        -74.71065352
      2.630474e+010       0.7410947987        -105.6312916         5.363512126         111.8540555        0.1252296415         30.61987928        0.6070851792        -74.79120517
      2.635473e+010       0.7410154721        -105.7284435         5.356333148          111.782204        0.1252998541         30.56460092        0.6064891207        -74.87160327
      2.640472e+010       0.7409365112        -105.8253403         5.349168903         111.7104856        0.1253697754         30.50945523        0.6058945248        -74.95184826
      2.645471e+010        0.740857915        -105.9219826         5.342019364         111.6388999        0.1254394068         30.45444174        0.6053013886        -75.03194058
       2.65047e+010       0.7407796824        -106.0183714         5.334884505         111.5674465        0.1255087495         30.39956003        0.6047097094        -75.11188065
      2.655469e+010       0.7407018123        -106.1145074           5.3277643         111.4961249        0.1255778049         30.34480964        0.6041194843        -75.19166891
      2.660468e+010       0.7406243036        -106.2103914         5.320658724         111.4249346        0.1256465743         30.29019014        0.6035307105        -75.27130579
      2.665467e+010       0.7405471553        -106.3060242         5.313567749         111.3538753        0.1257150591         30.23570109        0.6029433851        -75.35079172
      2.670466e+010       0.7404703663        -106.4014067         5.306491349         111.2829465        0.1257832606         30.18134204        0.6023575052        -75.43012711
      2.675465e+010       0.7403939355        -106.4965395         5.299429498         111.2121478          0.12585118         30.12711256        0.6017730681        -75.50931241
      2.680464e+010       0.7403178619        -106.5914235         5.292382169         111.1414787        0.1259188188         30.07301222        0.6011900707        -75.58834803
      2.685463e+010       0.7402421443        -106.6860594         5.285349336         111.0709387        0.1259861781         30.01904058        0.6006085103        -75.66723439
      2.690462e+010       0.7401667818        -106.7804481         5.278330972         111.0005276        0.1260532593         29.96519722        0.6000283839        -75.74597192
      2.695461e+010       0.7400917733        -106.8745904         5.271327051         110.9302448        0.1261200637         29.91148169        0.5994496887        -75.82456103
       2.70046e+010       0.7400171176        -106.9684869         5.264337545         110.8600898        0.1261865926         29.85789357        0.5988724217        -75.90300215
      2.705459e+010       0.7399428138        -107.0621385         5.257362427         110.7900624        0.1262528472         29.80443243        0.5982965801        -75.98129569
      2.710458e+010       0.7398688608        -107.1555459         5.250401671          110.720162        0.1263188287         29.75109785         0.597722161        -76.05944207
      2.715457e+010       0.7397952575          -107.24871          5.24345525         110.6503883        0.1263845386          29.6978894        0.5971491615        -76.13744169
      2.720456e+010       0.7397220029        -107.3416314         5.236523137         110.5807407        0.1264499779         29.64480667        0.5965775786        -76.21529498
      2.725455e+010       0.7396490959         -107.434311         5.229605304         110.5112189        0.1265151479         29.59184922        0.5960074094        -76.29300234
      2.730454e+010       0.7395765355        -107.5267495         5.222701724         110.4418226          0.12658005         29.53901663         0.595438651        -76.37056418
      2.735453e+010       0.7395043206        -107.6189477          5.21581237         110.3725511        0.1266446853          29.4863085        0.5948713004        -76.44798092
      2.740452e+010       0.7394324502        -107.7109063         5.208937215         110.3034042         0.126709055          29.4337244        0.5943053548        -76.52525295
      2.745451e+010       0.7393609232        -107.8026261         5.202076231         110.2343814        0.1267731604         29.38126392        0.5937408112        -76.60238069
       2.75045e+010       0.7392897386        -107.8941078          5.19522939         110.1654823        0.1268370027         29.32892664        0.5931776666        -76.67936454
      2.755449e+010       0.7392188953        -107.9853522         5.188396667         110.0967066        0.1269005832         29.27671215        0.5926159182         -76.7562049
      2.760448e+010       0.7391483924          -108.07636         5.181578032         110.0280537        0.1269639029         29.22462004        0.5920555629        -76.83290218
      2.765447e+010       0.7390782287        -108.1671321         5.174773458         109.9595232        0.1270269631          29.1726499        0.5914965978        -76.90945676
      2.770446e+010       0.7390084033         -108.257669         5.167982919         109.8911149         0.127089765         29.12080132          0.59093902        -76.98586906
      2.775445e+010        0.738938915        -108.3479717         5.161206385         109.8228282        0.1271523098          29.0690739        0.5903828265        -77.06213946
      2.780444e+010        0.738869763        -108.4380407         5.154443829         109.7546628        0.1272145987         29.01746722        0.5898280143        -77.13826837
      2.785443e+010        0.738800946        -108.5278769         5.147695224         109.6866182        0.1272766328          28.9659809        0.5892745804        -77.21425618
      2.790442e+010       0.7387324632        -108.6174809         5.140960542         109.6186941        0.1273384133         28.91461452         0.588722522        -77.29010328
      2.795441e+010       0.7386643135        -108.7068536         5.134239755         109.5508901        0.1273999414         28.86336768         0.588171836        -77.36581007
       2.80044e+010       0.7385964958        -108.7959956         5.127532835         109.4832057        0.1274612182         28.81223999        0.5876225195        -77.44137692
      2.805439e+010       0.7385290092        -108.8849077         5.120839754         109.4156405        0.1275222449         28.76123105        0.5870745695        -77.51680425
      2.810438e+010       0.7384618526        -108.9735905         5.114160484         109.3481942        0.1275830226         28.71034046        0.5865279829        -77.59209242
      2.815437e+010        0.738395025        -109.0620449         5.107494998         109.2808664        0.1276435525         28.65956782         0.585982757        -77.66724183
      2.820436e+010       0.7383285254        -109.1502715         5.100843267         109.2136567        0.1277038357         28.60891274        0.5854388885        -77.74225287
      2.825435e+010       0.7382623528        -109.2382711         5.094205263         109.1465647        0.1277638733         28.55837484        0.5848963747        -77.81712591
      2.830434e+010       0.7381965061        -109.3260444         5.087580958           109.07959        0.1278236664         28.50795371        0.5843552124        -77.89186134
      2.835433e+010       0.7381309845         -109.413592         5.080970325         109.0127321        0.1278832162         28.45764898        0.5838153987        -77.96645953
      2.840432e+010       0.7380657867        -109.5009147         5.074373334         108.9459908        0.1279425237         28.40746025        0.5832769307        -78.04092088
      2.845431e+010        0.738000912        -109.5880133         5.067789958         108.8793657        0.1280015901         28.35738714        0.5827398053        -78.11524576
       2.85043e+010       0.7379363592        -109.6748883         5.061220169         108.8128563        0.1280604165         28.30742925        0.5822040195        -78.18943454
      2.855429e+010       0.7378721273        -109.7615406         5.054663939         108.7464622         0.128119004         28.25758622        0.5816695704         -78.2634876
      2.860428e+010       0.7378082154        -109.8479708         5.048121239         108.6801832        0.1281773536         28.20785765        0.5811364549        -78.33740532
      2.865427e+010       0.7377446225        -109.9341796         5.041592041         108.6140187        0.1282354665         28.15824317        0.5806046701        -78.41118806
      2.870426e+010       0.7376813475        -110.0201677         5.035076317         108.5479685        0.1282933436         28.10874239         0.580074213        -78.48483621
      2.875425e+010       0.7376183895        -110.1059358         5.028574038         108.4820322        0.1283509862         28.05935494        0.5795450806        -78.55835012
      2.880424e+010       0.7375557475        -110.1914847         5.022085177         108.4162093        0.1284083952         28.01008045        0.5790172699        -78.63173018
      2.885423e+010       0.7374934205        -110.2768149         5.015609705         108.3504996        0.1284655717         27.96091853        0.5784907778        -78.70497674
      2.890422e+010       0.7374314076        -110.3619273         5.009147593         108.2849025        0.1285225168         27.91186881        0.5779656015        -78.77809018
      2.895421e+010       0.7373697077        -110.4468224         5.002698814         108.2194178        0.1285792315         27.86293093        0.5774417379        -78.85107086
       2.90042e+010       0.7373083198        -110.5315009         4.996263339         108.1540452        0.1286357169          27.8141045         0.576919184        -78.92391914
      2.905419e+010       0.7372472431        -110.6159636          4.98984114         108.0887841         0.128691974         27.76538917        0.5763979368        -78.99663539
      2.910418e+010       0.7371864765        -110.7002111         4.983432188         108.0236343        0.1287480038         27.71678455        0.5758779933        -79.06921997
      2.915417e+010        0.737126019        -110.7842441         4.977036455         107.9585954        0.1288038074         27.66829029        0.5753593506        -79.14167323
      2.920416e+010       0.7370658697        -110.8680633         4.970653913          107.893667        0.1288593858         27.61990602        0.5748420056        -79.21399555
      2.925415e+010       0.7370060277        -110.9516693         4.964284533         107.8288487          0.12891474         27.57163138        0.5743259554        -79.28618726
      2.930414e+010       0.7369464919        -111.0350629         4.957928287         107.7641403         0.128969871           27.523466         0.573811197        -79.35824875
      2.935413e+010       0.7368872614        -111.1182446         4.951585147         107.6995413        0.1290247798         27.47540952        0.5732977273        -79.43018034
      2.940412e+010       0.7368283352        -111.2012152         4.945255084         107.6350514        0.1290794675         27.42746158        0.5727855434        -79.50198241
      2.945411e+010       0.7367697124        -111.2839753         4.938938069         107.5706702         0.129133935         27.37962182        0.5722746422        -79.57365531
       2.95041e+010        0.736711392        -111.3665255         4.932634075         107.5063974        0.1291881834         27.33188989        0.5717650209        -79.64519937
      2.955409e+010       0.7366533731        -111.4488666         4.926343074         107.4422326        0.1292422136         27.28426543        0.5712566764        -79.71661497
      2.960408e+010       0.7365956548        -111.5309992         4.920065035         107.3781754        0.1292960265         27.23674808        0.5707496057        -79.78790244
      2.965407e+010        0.736538236         -111.612924         4.913799932         107.3142255        0.1293496232         27.18933749        0.5702438058        -79.85906213
      2.970406e+010       0.7364811158        -111.6946415         4.907547736         107.2503826        0.1294030047         27.14203331        0.5697392738        -79.93009439
      2.975405e+010       0.7364242934        -111.7761526         4.901308418         107.1866463        0.1294561719         27.09483519        0.5692360067        -80.00099957
      2.980404e+010       0.7363677677        -111.8574577         4.895081951         107.1230162        0.1295091258         27.04774277        0.5687340015          -80.071778
      2.985403e+010       0.7363115379        -111.9385575         4.888868305         107.0594921        0.1295618673         27.00075572        0.5682332552        -80.14243004
      2.990402e+010       0.7362556029        -112.0194528         4.882667452         106.9960735        0.1296143974         26.95387367        0.5677337648        -80.21295602
      2.995401e+010       0.7361999619        -112.1001441         4.876479365         106.9327601        0.1296667171          26.9070963        0.5672355274        -80.28335628
        3.0004e+010       0.7361446139        -112.1806321         4.870304014         106.8695516        0.1297188272         26.86042325        0.5667385399        -80.35363117
      3.005399e+010       0.7360895581        -112.2609174         4.864141372         106.8064476        0.1297707288         26.81385417        0.5662427995        -80.42378102
      3.010398e+010       0.7360347934        -112.3410007          4.85799141         106.7434478        0.1298224227         26.76738874        0.5657483031        -80.49380617
      3.015397e+010        0.735980319        -112.4208825         4.851854099         106.6805519        0.1298739099          26.7210266        0.5652550478        -80.56370695
      3.020396e+010       0.7359261339        -112.5005636         4.845729412         106.6177595        0.1299251914         26.67476742        0.5647630306         -80.6334837
      3.025395e+010       0.7358722373        -112.5800445          4.83961732         106.5550702        0.1299762679         26.62861086        0.5642722486        -80.70313676
      3.030394e+010       0.7358186282        -112.6593259         4.833517795         106.4924838        0.1300271405         26.58255658        0.5637826987        -80.77266645
      3.035393e+010       0.7357653057        -112.7384084         4.827430809         106.4299999        0.1300778101         26.53660425         0.563294378         -80.8420731
      3.040392e+010       0.7357122689        -112.8172926         4.821356333         106.3676181        0.1301282775         26.49075353        0.5628072836        -80.91135705
      3.045391e+010       0.7356595169        -112.8959792         4.815294339         106.3053382        0.1301785437          26.4450041        0.5623214126        -80.98051862
       3.05039e+010       0.7356070488        -112.9744688         4.809244799         106.2431598        0.1302286096         26.39935561        0.5618367619        -81.04955815
      3.055389e+010       0.7355548637        -113.0527619         4.803207685         106.1810826         0.130278476         26.35380775        0.5613533286        -81.11847596
      3.060388e+010       0.7355029607        -113.1308593         4.797182968         106.1191062        0.1303281439         26.30836017        0.5608711097        -81.18727236
      3.065387e+010        0.735451339        -113.2087614          4.79117062         106.0572303        0.1303776141         26.26301255        0.5603901024         -81.2559477
      3.070386e+010       0.7353999975         -113.286469         4.785170614         105.9954547        0.1304268875         26.21776457        0.5599103036        -81.32450229
      3.075385e+010       0.7353489354        -113.3639826         4.779182921         105.9337789         0.130475965          26.1726159        0.5594317105        -81.39293645
      3.080384e+010       0.7352981519        -113.4413029         4.773207513         105.8722026        0.1305248474         26.12756621        0.5589543201         -81.4612505
      3.085383e+010       0.7352476461        -113.5184304         4.767244362         105.8107256        0.1305735357         26.08261519        0.5584781295        -81.52944477
      3.090382e+010        0.735197417        -113.5953658          4.76129344         105.7493475        0.1306220306          26.0377625        0.5580031357        -81.59751956
      3.095381e+010       0.7351474638        -113.6721096         4.755354718          105.688068        0.1306703331         25.99300784        0.5575293358        -81.66547521
       3.10038e+010       0.7350977857        -113.7486625          4.74942817         105.6268867         0.130718444         25.94835087         0.557056727        -81.73331202
      3.105379e+010       0.7350483817         -113.825025         4.743513766         105.5658034        0.1307663641         25.90379129        0.5565853062        -81.80103031
      3.110378e+010       0.7349992509        -113.9011977         4.737611479         105.5048177        0.1308140943         25.85932877        0.5561150705         -81.8686304
      3.115377e+010       0.7349503926        -113.9771813         4.731721281         105.4439294        0.1308616354           25.814963        0.5556460171        -81.93611259
      3.120376e+010       0.7349018058        -114.0529763         4.725843144          105.383138        0.1309089883         25.77069367         0.555178143         -82.0034772
      3.125375e+010       0.7348534897        -114.1285834          4.71997704         105.3224433        0.1309561537         25.72652045        0.5547114454        -82.07072454
      3.130374e+010       0.7348054435         -114.204003         4.714122941          105.261845        0.1310031326         25.68244304        0.5542459212        -82.13785492
      3.135373e+010       0.7347576662        -114.2792358          4.70828082         105.2013428        0.1310499257         25.63846113        0.5537815677        -82.20486864
      3.140372e+010       0.7347101569        -114.3542824         4.702450648         105.1409364        0.1310965339         25.59457441        0.5533183819        -82.27176603
      3.145371e+010        0.734662915        -114.4291434         4.696632399         105.0806254         0.131142958         25.55078257         0.552856361        -82.33854737
       3.15037e+010       0.7346159395        -114.5038193         4.690826043         105.0204095        0.1311891987          25.5070853         0.552395502        -82.40521298
      3.155369e+010       0.7345692295        -114.5783107         4.685031553         104.9602885        0.1312352569         25.46348229        0.5519358021        -82.47176316
      3.160368e+010       0.7345227842        -114.6526181         4.679248902          104.900262        0.1312811334         25.41997324        0.5514772583        -82.53819821
      3.165367e+010       0.7344766028        -114.7267422         4.673478062         104.8403297         0.131326829         25.37655785        0.5510198679        -82.60451844
      3.170366e+010       0.7344306845        -114.8006836         4.667719006         104.7804914        0.1313723445          25.3332358        0.5505636279        -82.67072415
      3.175365e+010       0.7343850283        -114.8744427         4.661971705         104.7207467        0.1314176807         25.29000681        0.5501085354        -82.73681563
      3.180364e+010       0.7343396335        -114.9480202         4.656236133         104.6610954        0.1314628383         25.24687057        0.5496545876        -82.80279319
      3.185363e+010       0.7342944993        -115.0214167         4.650512261          104.601537        0.1315078182         25.20382678        0.5492017817        -82.86865712
      3.190362e+010       0.7342496247        -115.0946326         4.644800062         104.5420714        0.1315526211         25.16087514        0.5487501148        -82.93440772
      3.195361e+010        0.734205009        -115.1676686         4.639099509         104.4826983        0.1315972478         25.11801535        0.5482995839        -83.00004529
       3.20036e+010       0.7341606514        -115.2405252         4.633410574         104.4234173         0.131641699         25.07524712        0.5478501864        -83.06557012
      3.205359e+010        0.734116551        -115.3132029          4.62773323         104.3642281        0.1316859756         25.03257016        0.5474019193         -83.1309825
      3.210358e+010       0.7340727071        -115.3857024          4.62206745         104.3051305        0.1317300783         24.98998416        0.5469547797        -83.19628273
      3.215357e+010       0.7340291187        -115.4580242         4.616413205         104.2461241        0.1317740078         24.94748884         0.546508765        -83.26147109
      3.220356e+010       0.7339857852        -115.5301688          4.61077047         104.1872088         0.131817765         24.90508391        0.5460638721        -83.32654789
      3.225355e+010       0.7339427056        -115.6021368         4.605139216         104.1283841        0.1318613505         24.86276907        0.5456200983         -83.3915134
      3.230354e+010       0.7338998791        -115.6739287         4.599519417         104.0696497        0.1319047651         24.82054403        0.5451774409        -83.45636793
      3.235353e+010       0.7338573051        -115.7455451         4.593911045         104.0110055        0.1319480096         24.77840851        0.5447358968        -83.52111174
      3.240352e+010       0.7338149826        -115.8169865         4.588314073         103.9524512        0.1319910846         24.73636221        0.5442954634        -83.58574514
      3.245351e+010       0.7337729109        -115.8882535         4.582728473         103.8939863         0.132033991         24.69440486        0.5438561378         -83.6502684
       3.25035e+010       0.7337310891        -115.9593465          4.57715422         103.8356107        0.1320767295         24.65253616        0.5434179173        -83.71468182
      3.255349e+010       0.7336895165        -116.0302663         4.571591286         103.7773241        0.1321193007         24.61075584         0.542980799        -83.77898567
      3.260348e+010       0.7336481923        -116.1010132         4.566039643         103.7191261        0.1321617055         24.56906361        0.5425447801        -83.84318023
      3.265347e+010       0.7336071157        -116.1715878         4.560499266         103.6610166        0.1322039445         24.52745918        0.5421098578         -83.9072658
      3.270346e+010       0.7335662859        -116.2419906         4.554970126         103.6029952        0.1322460184         24.48594229        0.5416760294        -83.97124264
      3.275345e+010       0.7335257021        -116.3122223         4.549452198         103.5450616         0.132287928         24.44451264         0.541243292        -84.03511104
      3.280344e+010       0.7334853636        -116.3822832         4.543945453         103.4872156         0.132329674         24.40316995        0.5408116429        -84.09887128
      3.285343e+010       0.7334452695         -116.452174         4.538449867         103.4294569        0.1323712571         24.36191396        0.5403810794        -84.16252363
      3.290342e+010       0.7334054191        -116.5218952         4.532965411         103.3717851         0.132412678         24.32074438        0.5399515986        -84.22606838
      3.295341e+010       0.7333658116        -116.5914472         4.527492059         103.3142002        0.1324539373         24.27966094        0.5395231977        -84.28950579
       3.30034e+010       0.7333264462        -116.6608306         4.522029785         103.2567017        0.1324950359         24.23866336        0.5390958741        -84.35283614
      3.305339e+010       0.7332873222         -116.730046         4.516578561         103.1992893        0.1325359743         24.19775138         0.538669625        -84.41605971
      3.310338e+010       0.7332484388        -116.7990938         4.511138361          103.141963        0.1325767533         24.15692471        0.5382444476        -84.47917677
      3.315337e+010       0.7332097953        -116.8679746         4.505709159         103.0847222        0.1326173736         24.11618308        0.5378203391        -84.54218759
      3.320336e+010       0.7331713908        -116.9366889         4.500290929         103.0275668        0.1326578358         24.07552624        0.5373972969        -84.60509244
      3.325335e+010       0.7331332247        -117.0052372         4.494883643         102.9704966        0.1326981406         24.03495389        0.5369753182        -84.66789159
      3.330334e+010       0.7330952961          -117.07362         4.489487275         102.9135112        0.1327382887         23.99446579        0.5365544003         -84.7305853
      3.335333e+010       0.7330576043        -117.1418377         4.484101799         102.8566103        0.1327782808         23.95406166        0.5361345404        -84.79317386
      3.340332e+010       0.7330201486        -117.2098911         4.478727189         102.7997938        0.1328181175         23.91374123        0.5357157359        -84.85565752
      3.345331e+010       0.7329829282        -117.2777804         4.473363418         102.7430614        0.1328577995         23.87350423         0.535297984        -84.91803656
       3.35033e+010       0.7329459424        -117.3455063          4.46801046         102.6864127        0.1328973275         23.83335042         0.534881282        -84.98031123
      3.355329e+010       0.7329091904        -117.4130692         4.462668289         102.6298475        0.1329367021         23.79327951        0.5344656272         -85.0424818
      3.360328e+010       0.7328726715        -117.4804697         4.457336879         102.5733656        0.1329759239         23.75329125        0.5340510169        -85.10454853
      3.365327e+010       0.7328363849        -117.5477082         4.452016203         102.5169667        0.1330149937         23.71338538        0.5336374485        -85.16651169
      3.370326e+010       0.7328003299        -117.6147852         4.446706236         102.4606505        0.1330539121         23.67356163        0.5332249191        -85.22837154
      3.375325e+010       0.7327645058        -117.6817013         4.441406952         102.4044168        0.1330926797         23.63381976        0.5328134263        -85.29012834
      3.380324e+010       0.7327289118        -117.7484569         4.436118324         102.3482654        0.1331312972         23.59415949        0.5324029671        -85.35178235
      3.385323e+010       0.7326935473        -117.8150525         4.430840327         102.2921959        0.1331697652         23.55458057        0.5319935391        -85.41333382
      3.390322e+010       0.7326584114        -117.8814886         4.425572935         102.2362081        0.1332080843         23.51508275        0.5315851395        -85.47478302
      3.395321e+010       0.7326235036        -117.9477657         4.420316122         102.1803018        0.1332462552         23.47566576        0.5311777657         -85.5361302
       3.40032e+010       0.7325888229        -118.0138843         4.415069863         102.1244766        0.1332842785         23.43632936         0.530771415        -85.59737563
      3.405319e+010       0.7325543688        -118.0798449          4.40983413         102.0687325        0.1333221549         23.39707329        0.5303660847        -85.65851954
      3.410318e+010       0.7325201405         -118.145648           4.4046089          102.013069        0.1333598849          23.3578973        0.5299617723        -85.71956221
      3.415317e+010       0.7324861373        -118.2112939         4.399394146          101.957486        0.1333974692         23.31880114         0.529558475        -85.78050387
      3.420316e+010       0.7324523585        -118.2767833         4.394189843         101.9019831        0.1334349084         23.27978455        0.5291561902        -85.84134479
      3.425315e+010       0.7324188034        -118.3421166         4.388995965         101.8465603        0.1334722031         23.24084729        0.5287549154        -85.90208522
      3.430314e+010       0.7323854712        -118.4072943         4.383812486         101.7912171        0.1335093539          23.2019891        0.5283546479        -85.96272541
      3.435313e+010       0.7323523613        -118.4723169         4.378639382         101.7359534        0.1335463614         23.16320975         0.527955385         -86.0232656
      3.440312e+010        0.732319473        -118.5371847         4.373476626         101.6807689        0.1335832263         23.12450898        0.5275571241        -86.08370605
      3.445311e+010       0.7322868055        -118.6018984         4.368324194         101.6256633        0.1336199491         23.08588654        0.5271598628        -86.14404701
       3.45031e+010       0.7322543582        -118.6664583         4.363182061         101.5706365        0.1336565305          23.0473422        0.5267635982        -86.20428871
      3.455309e+010       0.7322221304         -118.730865           4.3580502         101.5156881         0.133692971          23.0088757        0.5263683279        -86.26443142
      3.460308e+010       0.7321901214        -118.7951189         4.352928587          101.460818        0.1337292712          22.9704868        0.5259740492        -86.32447537
      3.465307e+010       0.7321583305        -118.8592204         4.347817197         101.4060258        0.1337654318         22.93217527        0.5255807596        -86.38442082
      3.470306e+010        0.732126757        -118.9231701         4.342716004         101.3513115        0.1338014532         22.89394086        0.5251884565        -86.44426799
      3.475305e+010       0.7320954002        -118.9869684         4.337624984         101.2966746        0.1338373362         22.85578333        0.5247971373        -86.50401714
      3.480304e+010       0.7320642595        -119.0506158         4.332544111          101.242115        0.1338730812         22.81770244        0.5244067994        -86.56366852
      3.485303e+010       0.7320333342        -119.1141126         4.327473361         101.1876324        0.1339086889         22.77969794        0.5240174403        -86.62322235
      3.490302e+010       0.7320026235        -119.1774595         4.322412708         101.1332267        0.1339441598         22.74176962        0.5236290575        -86.68267889
      3.495301e+010       0.7319721268        -119.2406568         4.317362129         101.0788975        0.1339794944         22.70391721        0.5232416482        -86.74203837
        3.5003e+010       0.7319418435         -119.303705         4.312321597         101.0246446        0.1340146935          22.6661405        0.5228552101        -86.80130102
      3.505299e+010       0.7319117729        -119.3666045         4.307291089         100.9704678        0.1340497575         22.62843925        0.5224697406         -86.8604671
      3.510298e+010       0.7318819143        -119.4293558         4.302270579         100.9163669         0.134084687         22.59081321        0.5220852371        -86.91953684
      3.515297e+010        0.731852267        -119.4919594         4.297260044         100.8623416        0.1341194826         22.55326217        0.5217016971        -86.97851047
      3.520296e+010       0.7318228304        -119.5544156         4.292259458         100.8083917        0.1341541448         22.51578588        0.5213191181        -87.03738822
      3.525295e+010       0.7317936038         -119.616725         4.287268797         100.7545169        0.1341886742         22.47838411        0.5209374975        -87.09617034
      3.530294e+010       0.7317645865         -119.678888         4.282288036         100.7007171        0.1342230713         22.44105664        0.5205568329        -87.15485707
      3.535293e+010        0.731735778        -119.7409051         4.277317151          100.646992        0.1342573367         22.40380322        0.5201771217        -87.21344862
      3.540292e+010       0.7317071775        -119.8027766         4.272356118         100.5933414        0.1342914709         22.36662365        0.5197983615        -87.27194523
      3.545291e+010       0.7316787844         -119.864503         4.267404912          100.539765        0.1343254746         22.32951768        0.5194205497        -87.33034715
       3.55029e+010       0.7316505981        -119.9260847         4.262463509         100.4862626        0.1343593481         22.29248508        0.5190436838        -87.38865459
      3.555289e+010       0.7316226179        -119.9875223         4.257531885         100.4328341        0.1343930921         22.25552564        0.5186677614        -87.44686779
      3.560288e+010       0.7315948431        -120.0488161         4.252610015         100.3794791        0.1344267071         22.21863913          0.51829278        -87.50498697
      3.565287e+010       0.7315672732        -120.1099665         4.247697876         100.3261975        0.1344601936         22.18182532         0.517918737        -87.56301237
      3.570286e+010       0.7315399074        -120.1709741         4.242795443          100.272989        0.1344935522         22.14508399        0.5175456302        -87.62094422
      3.575285e+010       0.7315127451        -120.2318391         4.237902693         100.2198534        0.1345267834         22.10841491        0.5171734568        -87.67878274
      3.580284e+010       0.7314857858        -120.2925622         4.233019601         100.1667904        0.1345598877         22.07181786        0.5168022146        -87.73652815
      3.585283e+010       0.7314590288        -120.3531436         4.228146144            100.1138        0.1345928657         22.03529263        0.5164319011        -87.79418069
      3.590282e+010       0.7314324733        -120.4135838         4.223282297         100.0608818        0.1346257178         21.99883899        0.5160625138        -87.85174057
      3.595281e+010       0.7314061189        -120.4738833         4.218428037         100.0080356        0.1346584447         21.96245672        0.5156940502        -87.90920803
       3.60028e+010       0.7313799649        -120.5340424          4.21358334          99.9552612        0.1346910467          21.9261456         0.515326508        -87.96658328
      3.605279e+010       0.7313540107        -120.5940616         4.208748183          99.9025584        0.1347235244         21.88990541        0.5149598848        -88.02386655
      3.610278e+010       0.7313282556        -120.6539414         4.203922541         99.84992697        0.1347558784         21.85373595         0.514594178        -88.08105806
      3.615277e+010        0.731302699         -120.713682         4.199106392         99.79736671        0.1347881091         21.81763698        0.5142293852        -88.13815803
      3.620276e+010       0.7312773403         -120.773284         4.194299711         99.74487738        0.1348202171          21.7816083        0.5138655042        -88.19516668
      3.625275e+010       0.7312521789        -120.8327478         4.189502475         99.69245878        0.1348522028         21.74564969        0.5135025323        -88.25208424
      3.630274e+010       0.7312272142        -120.8920738         4.184714661          99.6401107        0.1348840668         21.70976093        0.5131404674        -88.30891091
      3.635273e+010       0.7312024455        -120.9512623         4.179936245         99.58783291        0.1349158095         21.67394182        0.5127793069        -88.36564692
      3.640272e+010       0.7311778723        -121.0103138         4.175167204         99.53562522        0.1349474315         21.63819214        0.5124190484        -88.42229248
      3.645271e+010        0.731153494        -121.0692288         4.170407515         99.48348741        0.1349789332         21.60251168        0.5120596897        -88.47884782
       3.65027e+010       0.7311293099        -121.1280076         4.165657154         99.43141927        0.1350103152         21.56690022        0.5117012282        -88.53531314
      3.655269e+010       0.7311053194        -121.1866506         4.160916098         99.37942059        0.1350415778         21.53135757        0.5113436617        -88.59168867
      3.660268e+010        0.731081522        -121.2451583         4.156184325         99.32749116        0.1350727217          21.4958835        0.5109869878        -88.64797461
      3.665267e+010       0.7310579171         -121.303531         4.151461811         99.27563078        0.1351037473         21.46047781         0.510631204        -88.70417119
      3.670266e+010        0.731034504        -121.3617692         4.146748532         99.22383924        0.1351346551          21.4251403        0.5102763082        -88.76027861
      3.675265e+010       0.7310112821        -121.4198732         4.142044467         99.17211632        0.1351654455         21.38987075        0.5099222978        -88.81629708
      3.680264e+010       0.7309882509        -121.4778435         4.137349592         99.12046184        0.1351961191         21.35466896        0.5095691706        -88.87222682
      3.685263e+010       0.7309654099        -121.5356805         4.132663885         99.06887557        0.1352266762         21.31953473        0.5092169242        -88.92806805
      3.690262e+010       0.7309427583        -121.5933845         4.127987322         99.01735733        0.1352571175         21.28446785        0.5088655563        -88.98382096
      3.695261e+010       0.7309202956         -121.650956         4.123319881          98.9659069        0.1352874433         21.24946811        0.5085150646        -89.03948577
       3.70026e+010       0.7308980212        -121.7083953         4.118661539         98.91452409        0.1353176542         21.21453532        0.5081654467        -89.09506268
      3.705259e+010       0.7308759346        -121.7657028         4.114012273         98.86320868        0.1353477505         21.17966926        0.5078167003        -89.15055191
      3.710258e+010       0.7308540351         -121.822879         4.109372061         98.81196049        0.1353777328         21.14486975        0.5074688232        -89.20595367
      3.715257e+010       0.7308323223        -121.8799242         4.104740881         98.76077931        0.1354076015         21.11013657         0.507121813        -89.26126815
      3.720256e+010       0.7308107954        -121.9368389         4.100118709         98.70966494        0.1354373571         21.07546954        0.5067756674        -89.31649557
      3.725255e+010        0.730789454        -121.9936233         4.095505524         98.65861719            0.135467         21.04086844        0.5064303841        -89.37163613
      3.730254e+010       0.7307682975        -122.0502779         4.090901303         98.60763585        0.1354965307         21.00633308        0.5060859609        -89.42669004
      3.735253e+010       0.7307473253        -122.1068032         4.086306024         98.55672073        0.1355259496         20.97186326        0.5057423955        -89.48165749
      3.740252e+010       0.7307265368        -122.1631994         4.081719664         98.50587163        0.1355552573         20.93745879        0.5053996855         -89.5365387
      3.745251e+010       0.7307059315        -122.2194669         4.077142201         98.45508836        0.1355844541         20.90311947        0.5050578287        -89.59133387
       3.75025e+010       0.7306855088        -122.2756062         4.072573614         98.40437073        0.1356135404         20.86884511        0.5047168229        -89.64604319
      3.755249e+010       0.7306652682        -122.3316176         4.068013879         98.35371853        0.1356425168          20.8346355        0.5043766658        -89.70066687
      3.760248e+010       0.7306452091        -122.3875015         4.063462976         98.30313158        0.1356713837         20.80049045        0.5040373552         -89.7552051
      3.765247e+010       0.7306253309        -122.4432582         4.058920881         98.25260968        0.1357001415         20.76640978        0.5036988887         -89.8096581
      3.770246e+010       0.7306056331        -122.4988882         4.054387573         98.20215264        0.1357287907         20.73239329        0.5033612642        -89.86402606
      3.775245e+010       0.7305861151        -122.5543919         4.049863031         98.15176027        0.1357573316         20.69844078        0.5030244795        -89.91830917
      3.780244e+010       0.7305667764        -122.6097695         4.045347231         98.10143238        0.1357857647         20.66455207        0.5026885322        -89.97250764
      3.785243e+010       0.7305476165        -122.6650215         4.040840154         98.05116878        0.1358140905         20.63072696        0.5023534202        -90.02662166
      3.790242e+010       0.7305286348        -122.7201483         4.036341775         98.00096928        0.1358423094         20.59696526        0.5020191413        -90.08065143
      3.795241e+010       0.7305098307        -122.7751501         4.031852075         97.95083369        0.1358704218          20.5632668        0.5016856931        -90.13459715
       3.80024e+010       0.7304912037        -122.8300275         4.027371032         97.90076182        0.1358984282         20.52963136        0.5013530737        -90.18845901
      3.805239e+010       0.7304727533        -122.8847807         4.022898623          97.8507535        0.1359263288         20.49605878        0.5010212806         -90.2422372
      3.810238e+010       0.7304544789        -122.9394102         4.018434827         97.80080852        0.1359541243         20.46254886        0.5006903118        -90.29593192
      3.815237e+010         0.73043638        -122.9939162         4.013979623         97.75092671         0.135981815         20.42910142        0.5003601651        -90.34954336
      3.820236e+010       0.7304184561        -123.0482992          4.00953299         97.70110789        0.1360094013         20.39571626        0.5000308382        -90.40307172
      3.825235e+010       0.7304007066        -123.1025595         4.005094906         97.65135186        0.1360368836         20.36239321         0.499702329        -90.45651719
      3.830234e+010        0.730383131        -123.1566974         4.000665349         97.60165844        0.1360642623         20.32913208        0.4993746353        -90.50987996
      3.835233e+010       0.7303657288        -123.2107134         3.996244299         97.55202745        0.1360915379         20.29593269         0.499047755        -90.56316022
      3.840232e+010       0.7303484994        -123.2646078         3.991831734         97.50245871        0.1361187108         20.26279486        0.4987216859        -90.61635816
      3.845231e+010       0.7303314423         -123.318381         3.987427634         97.45295204        0.1361457814         20.22971839        0.4983964257        -90.66947397
       3.85023e+010       0.7303145571        -123.3720333         3.983031976         97.40350726          0.13617275         20.19670311        0.4980719725        -90.72250784
      3.855229e+010       0.7302978431         -123.425565         3.978644741         97.35412418        0.1361996171         20.16374885         0.497748324        -90.77545996
      3.860228e+010       0.7302812999        -123.4789766         3.974265906         97.30480262        0.1362263831         20.13085541        0.4974254781        -90.82833051
      3.865227e+010       0.7302649269        -123.5322683         3.969895452         97.25554242        0.1362530483         20.09802262        0.4971034327        -90.88111969
      3.870226e+010       0.7302487237        -123.5854405         3.965533356         97.20634339        0.1362796133         20.06525031        0.4967821856        -90.93382768
      3.875225e+010       0.7302326896        -123.6384937         3.961179599         97.15720534        0.1363060783         20.03253828        0.4964617347        -90.98645466
      3.880224e+010       0.7302168243         -123.691428          3.95683416         97.10812812        0.1363324438         19.99988637        0.4961420779        -91.03900082
      3.885223e+010       0.7302011272         -123.744244         3.952497017         97.05911153        0.1363587102          19.9672944        0.4958232131        -91.09146636
      3.890222e+010       0.7301855977        -123.7969418         3.948168151         97.01015541        0.1363848778         19.93476219        0.4955051382        -91.14385144
      3.895221e+010       0.7301702355         -123.849522          3.94384754         96.96125958         0.136410947         19.90228956        0.4951878511        -91.19615625
       3.90022e+010       0.7301550399        -123.9019847         3.939535164         96.91242386        0.1364369183         19.86987635        0.4948713496        -91.24838099
      3.905219e+010       0.7301400105        -123.9543304         3.935231003         96.86364809         0.136462792         19.83752237        0.4945556318        -91.30052582
      3.910218e+010       0.7301251468        -124.0065594         3.930935035         96.81493208        0.1364885684         19.80522745        0.4942406954        -91.35259094
      3.915217e+010       0.7301104483        -124.0586721         3.926647241         96.76627567        0.1365142481         19.77299142        0.4939265385        -91.40457651
      3.920216e+010       0.7300959144        -124.1106687           3.9223676         96.71767868        0.1365398313         19.74081411         0.493613159        -91.45648274
      3.925215e+010       0.7300815448        -124.1625496         3.918096092         96.66914095        0.1365653184         19.70869535        0.4933005548        -91.50830978
      3.930214e+010       0.7300673388        -124.2143153         3.913832697         96.62066231        0.1365907099         19.67663496        0.4929887238        -91.56005783
      3.935213e+010       0.7300532961        -124.2659658         3.909577394         96.57224257         0.136616006         19.64463277         0.492677664        -91.61172706
      3.940212e+010        0.730039416        -124.3175018         3.905330163         96.52388158        0.1366412072         19.61268862        0.4923673733        -91.66331765
      3.945211e+010       0.7300256982        -124.3689234         3.901090985         96.47557917        0.1366663138         19.58080233        0.4920578497        -91.71482978
       3.95021e+010       0.7300121422         -124.420231         3.896859838         96.42733517        0.1366913262         19.54897373        0.4917490912        -91.76626363
      3.955209e+010       0.7299987474        -124.4714249         3.892636704          96.3791494        0.1367162447         19.51720267        0.4914410956        -91.81761937
      3.960208e+010       0.7299855134        -124.5225055         3.888421562         96.33102172        0.1367410698         19.48548896        0.4911338611        -91.86889717
      3.965207e+010       0.7299724397         -124.573473         3.884214392         96.28295194        0.1367658017         19.45383244        0.4908273855        -91.92009723
      3.970206e+010       0.7299595258        -124.6243279         3.880015174          96.2349399        0.1367904409         19.42223296        0.4905216669         -91.9712197
      3.975205e+010       0.7299467712        -124.6750705          3.87582389         96.18698544        0.1368149877         19.39069033        0.4902167032        -92.02226476
      3.980204e+010       0.7299341756         -124.725701         3.871640518          96.1390884        0.1368394425          19.3592044        0.4899124924        -92.07323259
      3.985203e+010       0.7299217383        -124.7762198         3.867465039         96.09124861        0.1368638056           19.327775        0.4896090326        -92.12412336
      3.990202e+010        0.729909459        -124.8266272         3.863297433          96.0434659        0.1368880774         19.29640197        0.4893063217        -92.17493725
      3.995201e+010       0.7298973371        -124.8769236         3.859137682         95.99574012        0.1369122582         19.26508515        0.4890043577        -92.22567442
        4.0002e+010       0.7298853722        -124.9271092         3.854985765         95.94807111        0.1369363484         19.23382436        0.4887031387        -92.27633505
      4.005199e+010       0.7298735638        -124.9771845         3.850841663          95.9004587        0.1369603483         19.20261946        0.4884026626        -92.32691931
      4.010198e+010       0.7298619115        -125.0271496         3.846705357         95.85290273        0.1369842584         19.17147027        0.4881029276        -92.37742737
      4.015197e+010       0.7298504147         -125.077005         3.842576827         95.80540304        0.1370080788         19.14037665        0.4878039316        -92.42785939
      4.020196e+010       0.7298390732        -125.1267509         3.838456053         95.75795947          0.13703181         19.10933842        0.4875056727        -92.47821556
      4.025195e+010       0.7298278862        -125.1763876         3.834343017         95.71057187        0.1370554523         19.07835543        0.4872081488        -92.52849603
      4.030194e+010       0.7298168535        -125.2259156         3.830237699         95.66324007        0.1370790061         19.04742751        0.4869113582        -92.57870098
      4.035193e+010       0.7298059746         -125.275335         3.826140081         95.61596392        0.1371024717         19.01655452        0.4866152987        -92.62883058
      4.040192e+010        0.729795249        -125.3246463         3.822050142         95.56874326        0.1371258494         18.98573629        0.4863199685        -92.67888498
      4.045191e+010       0.7297846762        -125.3738496         3.817967864         95.52157794        0.1371491396         18.95497267        0.4860253657        -92.72886437
       4.05019e+010       0.7297742558        -125.4229454         3.813893228         95.47446779        0.1371723426         18.92426349        0.4857314883        -92.77876889
      4.055189e+010       0.7297639874        -125.4719339         3.809826215         95.42741266        0.1371954587          18.8936086        0.4854383343        -92.82859873
      4.060188e+010       0.7297538705        -125.5208155         3.805766806         95.38041241        0.1372184883         18.86300786        0.4851459019        -92.87835405
      4.065187e+010       0.7297439046        -125.5695904         3.801714982         95.33346687        0.1372414318         18.83246109        0.4848541891        -92.92803501
      4.070186e+010       0.7297340894         -125.618259         3.797670725         95.28657588        0.1372642893         18.80196815         0.484563194        -92.97764177
      4.075185e+010       0.7297244243        -125.6668215         3.793634014         95.23973931        0.1372870613         18.77152888        0.4842729148         -93.0271745
      4.080184e+010        0.729714909        -125.7152783         3.789604833         95.19295699        0.1373097481         18.74114313        0.4839833495        -93.07663336
      4.085183e+010       0.7297055429        -125.7636297         3.785583161         95.14622877        0.1373323501         18.71081075        0.4836944962        -93.12601852
      4.090182e+010       0.7296963257         -125.811876         3.781568981          95.0995545        0.1373548674         18.68053158        0.4834063531        -93.17533013
      4.095181e+010        0.729687257        -125.8600175         3.777562274         95.05293403        0.1373773005         18.65030547        0.4831189182        -93.22456836
       4.10018e+010       0.7296783362        -125.9080544         3.773563021         95.00636721        0.1373996497         18.62013228        0.4828321897        -93.27373338
      4.105179e+010       0.7296695629        -125.9559871         3.769571204          94.9598539        0.1374219153         18.59001185        0.4825461657        -93.32282533
      4.110178e+010       0.7296609368        -126.0038159         3.765586805         94.91339393        0.1374440976         18.55994402        0.4822608444        -93.37184438
      4.115177e+010       0.7296524573        -126.0515411         3.761609804         94.86698716         0.137466197         18.52992866        0.4819762238         -93.4207907
      4.120176e+010       0.7296441241        -126.0991629         3.757640184         94.82063345        0.1374882136         18.49996561        0.4816923021        -93.46966443
      4.125175e+010       0.7296359368        -126.1466817         3.753677927         94.77433264         0.137510148         18.47005472        0.4814090775        -93.51846575
      4.130174e+010       0.7296278948        -126.1940978         3.749723014          94.7280846        0.1375320003         18.44019585        0.4811265481         -93.5671948
      4.135173e+010       0.7296199979        -126.2414114         3.745775427         94.68188916        0.1375537709         18.41038885         0.480844712        -93.61585174
      4.140172e+010       0.7296122455        -126.2886229         3.741835147         94.63574619          0.13757546         18.38063356        0.4805635675        -93.66443674
      4.145171e+010       0.7296046372        -126.3357325         3.737902158         94.58965555        0.1375970681         18.35092986        0.4802831127        -93.71294994
       4.15017e+010       0.7295971726        -126.3827406          3.73397644         94.54361708        0.1376185954         18.32127758        0.4800033458        -93.76139151
      4.155169e+010       0.7295898514        -126.4296474         3.730057976         94.49763063        0.1376400421         18.29167658        0.4797242649         -93.8097616
      4.160168e+010        0.729582673        -126.4764532         3.726146748         94.45169608        0.1376614087         18.26212673        0.4794458682        -93.85806037
      4.165167e+010       0.7295756371        -126.5231583         3.722242737         94.40581327        0.1376826954         18.23262786         0.479168154        -93.90628796
      4.170166e+010       0.7295687433        -126.5697629         3.718345927         94.35998206        0.1377039025         18.20317985        0.4788911203        -93.95444455
      4.175165e+010       0.7295619911        -126.6162675         3.714456299         94.31420232        0.1377250303         18.17378255        0.4786147655        -94.00253027
      4.180164e+010       0.7295553801        -126.6626722         3.710573836         94.26847388        0.1377460791         18.14443581        0.4783390877        -94.05054528
      4.185163e+010         0.72954891        -126.7089773         3.706698519         94.22279663        0.1377670492          18.1151395        0.4780640851        -94.09848974
      4.190162e+010       0.7295425802        -126.7551832         3.702830332          94.1771704        0.1377879409         18.08589346        0.4777897559         -94.1463638
      4.195161e+010       0.7295363905          -126.80129         3.698969256         94.13159508        0.1378087545         18.05669757        0.4775160984         -94.1941676
       4.20016e+010       0.7295303404        -126.8472982         3.695115274          94.0860705        0.1378294902         18.02755168        0.4772431108        -94.24190131
      4.205159e+010       0.7295244295        -126.8932079         3.691268369         94.04059655        0.1378501485         17.99845564        0.4769707913        -94.28956507
      4.210158e+010       0.7295186574        -126.9390195         3.687428522         93.99517306        0.1378707294         17.96940933        0.4766991381        -94.33715904
      4.215157e+010       0.7295130238        -126.9847332         3.683595718         93.94979992        0.1378912335         17.94041259        0.4764281494        -94.38468335
      4.220156e+010       0.7295075281        -127.0303492         3.679769937         93.90447698        0.1379116609          17.9114653        0.4761578236        -94.43213817
      4.225155e+010         0.72950217         -127.075868         3.675951164          93.8592041        0.1379320119         17.88256731        0.4758881589        -94.47952365
      4.230154e+010       0.7294969491        -127.1212897          3.67213938         93.81398114        0.1379522868         17.85371848        0.4756191534        -94.52683992
      4.235153e+010       0.7294918651        -127.1666147         3.668334569         93.76880798        0.1379724858         17.82491869        0.4753508056        -94.57408715
      4.240152e+010       0.7294869175        -127.2118431         3.664536713         93.72368447        0.1379926094         17.79616778        0.4750831136        -94.62126547
      4.245151e+010       0.7294821059        -127.2569753         3.660745795         93.67861048        0.1380126577         17.76746563        0.4748160756        -94.66837503
       4.25015e+010         0.72947743        -127.3020116         3.656961798         93.63358587         0.138032631         17.73881211        0.4745496901        -94.71541599
      4.255149e+010       0.7294728893        -127.3469521         3.653184706         93.58861051        0.1380525296         17.71020706        0.4742839552        -94.76238849
      4.260148e+010       0.7294684835        -127.3917973           3.6494145         93.54368426        0.1380723539         17.68165037        0.4740188692        -94.80929267
      4.265147e+010       0.7294642122        -127.4365473         3.645651164           93.498807        0.1380921039         17.65314189        0.4737544305        -94.85612868
      4.270146e+010       0.7294600749        -127.4812024         3.641894682         93.45397859        0.1381117801          17.6246815        0.4734906373        -94.90289667
      4.275145e+010       0.7294560714         -127.525763         3.638145036         93.40919889        0.1381313827         17.59626905        0.4732274879        -94.94959678
      4.280144e+010       0.7294522012        -127.5702291         3.634402209         93.36446778         0.138150912         17.56790442        0.4729649806        -94.99622915
      4.285143e+010        0.729448464        -127.6146012         3.630666186         93.31978512        0.1381703682         17.53958747        0.4727031137        -95.04279393
      4.290142e+010       0.7294448594        -127.6588795         3.626936948         93.27515078        0.1381897516         17.51131808        0.4724418855        -95.08929127
      4.295141e+010       0.7294413869        -127.7030642          3.62321448         93.23056464        0.1382090625          17.4830961        0.4721812944         -95.1357213
       4.30014e+010       0.7294380463        -127.7471557         3.619498764         93.18602655        0.1382283012         17.45492142        0.4719213386        -95.18208416
      4.305139e+010       0.7294348371        -127.7911541         3.615789785          93.1415364        0.1382474678         17.42679389        0.4716620166        -95.22838001
      4.310138e+010        0.729431759        -127.8350597         3.612087525         93.09709405        0.1382665628         17.39871339        0.4714033265        -95.27460898
      4.315137e+010       0.7294288116        -127.8788729         3.608391969         93.05269937        0.1382855862         17.37067979        0.4711452668        -95.32077121
      4.320136e+010       0.7294259945        -127.9225938         3.604703099         93.00835224        0.1383045385         17.34269296        0.4708878358        -95.36686685
      4.325135e+010       0.7294233074        -127.9662227         3.601020899         92.96405252        0.1383234198         17.31475277        0.4706310319        -95.41289603
      4.330134e+010       0.7294207499        -128.0097599         3.597345354          92.9198001        0.1383422305          17.2868591        0.4703748533         -95.4588589
      4.335133e+010       0.7294183216        -128.0532056         3.593676446         92.87559483        0.1383609707         17.25901181        0.4701192985        -95.50475559
      4.340132e+010       0.7294160222          -128.09656          3.59001416         92.83143661        0.1383796408         17.23121078        0.4698643657        -95.55058624
      4.345131e+010       0.7294138513        -128.1398236         3.586358479         92.78732529        0.1383982409         17.20345588        0.4696100534          -95.596351
       4.35013e+010       0.7294118085        -128.1829964         3.582709387         92.74326077        0.1384167714         17.17574698          0.46935636           -95.64205
      4.355129e+010       0.7294098935        -128.2260787         3.579066868          92.6992429        0.1384352325         17.14808396        0.4691032837        -95.68768338
      4.360128e+010       0.7294081059        -128.2690709         3.575430906         92.65527156        0.1384536245          17.1204667        0.4688508231        -95.73325128
      4.365127e+010       0.7294064453        -128.3119731         3.571801484         92.61134664        0.1384719475         17.09289507        0.4685989764        -95.77875382
      4.370126e+010       0.7294049114        -128.3547856         3.568178588           92.567468         0.138490202         17.06536894         0.468347742        -95.82419117
      4.375125e+010       0.7294035039        -128.3975086           3.5645622         92.52363553         0.138508388         17.03788819        0.4680971184        -95.86956343
      4.380124e+010       0.7294022224        -128.4401424         3.560952305          92.4798491        0.1385265058         17.01045269        0.4678471039        -95.91487077
      4.385123e+010       0.7294010665        -128.4826873         3.557348888         92.43610859        0.1385445558         16.98306233        0.4675976969         -95.9601133
      4.390122e+010       0.7294000359        -128.5251435         3.553751931         92.39241387        0.1385625381         16.95571697        0.4673488959        -96.00529116
      4.395121e+010       0.7293991302        -128.5675112          3.55016142         92.34876483         0.138580453         16.92841651        0.4671006992         -96.0504045
       4.40012e+010       0.7293983491        -128.6097907         3.546577339         92.30516134        0.1385983007         16.90116081        0.4668531053        -96.09545343
      4.405119e+010       0.7293976922        -128.6519823         3.542999673         92.26160329        0.1386160814         16.87394975        0.4666061125        -96.14043811
      4.410118e+010       0.7293971592        -128.6940861         3.539428404         92.21809055        0.1386337955         16.84678321        0.4663597194        -96.18535865
      4.415117e+010       0.7293967497        -128.7361024         3.535863518           92.174623        0.1386514432         16.81966108        0.4661139242         -96.2302152
      4.420116e+010       0.7293964635        -128.7780315            3.532305         92.13120052        0.1386690246         16.79258323        0.4658687256        -96.27500789
      4.425115e+010          0.7293963        -128.8198736         3.528752834           92.087823        0.1386865401         16.76554954        0.4656241218        -96.31973685
      4.430114e+010       0.7293962591        -128.8616289         3.525207004         92.04449032        0.1387039899         16.73855989        0.4653801114        -96.36440221
      4.435113e+010       0.7293963403        -128.9032977         3.521667494         92.00120235        0.1387213741         16.71161417        0.4651366927         -96.4090041
      4.440112e+010       0.7293965434        -128.9448802         3.518134291         91.95795898        0.1387386931         16.68471224        0.4648938643        -96.45354266
      4.445111e+010        0.729396868        -128.9863767         3.514607377         91.91476009        0.1387559471         16.65785401        0.4646516245        -96.49801802
       4.45011e+010       0.7293973136        -129.0277874         3.511086739         91.87160557        0.1387731362         16.63103934        0.4644099719         -96.5424303
      4.455109e+010       0.7293978801        -129.0691126          3.50757236          91.8284953        0.1387902608         16.60426813        0.4641689049        -96.58677963
      4.460108e+010       0.7293985671        -129.1103523         3.504064225         91.78542916        0.1388073211         16.57754025         0.463928422        -96.63106616
      4.465107e+010       0.7293993742        -129.1515071          3.50056232         91.74240703        0.1388243173         16.55085558        0.4636885216        -96.67528999
      4.470106e+010       0.7294003012        -129.1925769         3.497066629         91.69942881        0.1388412496         16.52421402        0.4634492022        -96.71945128
      4.475105e+010       0.7294013476        -129.2335621         3.493577137         91.65649437        0.1388581183         16.49761544        0.4632104624        -96.76355014
      4.480104e+010       0.7294025131        -129.2744629         3.490093829         91.61360361        0.1388749235         16.47105974        0.4629723005        -96.80758669
      4.485103e+010       0.7294037975        -129.3152796          3.48661669          91.5707564        0.1388916655         16.44454678        0.4627347151        -96.85156108
      4.490102e+010       0.7294052003        -129.3560124         3.483145705         91.52795264        0.1389083446         16.41807647        0.4624977046        -96.89547343
      4.495101e+010       0.7294067213        -129.3966614         3.479680859         91.48519221         0.138924961         16.39164869        0.4622612677        -96.93932386
        4.5001e+010       0.7294083601         -129.437227         3.476222137         91.44247499        0.1389415148         16.36526332        0.4620254026         -96.9831125
      4.505099e+010       0.7294101165        -129.4777093         3.472769525         91.39980088        0.1389580063         16.33892024        0.4617901081        -97.02683948
      4.510098e+010         0.72941199        -129.5181086         3.469323008         91.35716977        0.1389744357         16.31261936        0.4615553826        -97.07050492
      4.515097e+010       0.7294139804        -129.5584252          3.46588257         91.31458153        0.1389908033         16.28636054        0.4613212245        -97.11410896
      4.520096e+010       0.7294160874        -129.5986592         3.462448197         91.27203607        0.1390071093         16.26014369        0.4610876325         -97.1576517
      4.525095e+010       0.7294183105        -129.6388108         3.459019875         91.22953326        0.1390233538         16.23396869         0.460854605        -97.20113329
      4.530094e+010       0.7294206496        -129.6788804         3.455597589         91.18707301        0.1390395371         16.20783543        0.4606221405        -97.24455384
      4.535093e+010       0.7294231042        -129.7188681         3.452181324         91.14465519        0.1390556594         16.18174379        0.4603902377        -97.28791348
      4.540092e+010       0.7294256742        -129.7587741         3.448771066          91.1022797         0.139071721         16.15569367         0.460158895        -97.33121234
      4.545091e+010        0.729428359        -129.7985987           3.4453668         91.05994642         0.139087722         16.12968496         0.459928111        -97.37445053
       4.55009e+010       0.7294311585        -129.8383421         3.441968512         91.01765526        0.1391036626         16.10371755        0.4596978842        -97.41762818
      4.555089e+010       0.7294340724        -129.8780045         3.438576187          90.9754061        0.1391195431         16.07779132        0.4594682132        -97.46074541
      4.560088e+010       0.7294371002        -129.9175861         3.435189811         90.93319883        0.1391353637         16.05190617        0.4592390965        -97.50380235
      4.565087e+010       0.7294402417        -129.9570872          3.43180937         90.89103335        0.1391511246         16.02606199        0.4590105327        -97.54679911
      4.570086e+010       0.7294434967        -129.9965079         3.428434849         90.84890955         0.139166826         16.00025867        0.4587825203        -97.58973583
      4.575085e+010       0.7294468647        -130.0358486         3.425066234         90.80682731        0.1391824681          15.9744961        0.4585550579        -97.63261261
      4.580084e+010       0.7294503455        -130.0751094         3.421703511         90.76478654        0.1391980511         15.94877418        0.4583281441        -97.67542959
      4.585083e+010       0.7294539387        -130.1142905         3.418346666         90.72278712        0.1392135752         15.92309279        0.4581017775        -97.71818688
      4.590082e+010       0.7294576441        -130.1533921         3.414995684         90.68082896        0.1392290406         15.89745184        0.4578759566         -97.7608846
      4.595081e+010       0.7294614614        -130.1924145         3.411650551         90.63891194        0.1392444476         15.87185121          0.45765068        -97.80352288
       4.60008e+010       0.7294653902        -130.2313579         3.408311254         90.59703596        0.1392597963          15.8462908        0.4574259463        -97.84610183
      4.605079e+010       0.7294694303        -130.2702224         3.404977778         90.55520092         0.139275087          15.8207705        0.4572017541        -97.88862157
      4.610078e+010       0.7294735813        -130.3090084         3.401650109         90.51340671        0.1392903198         15.79529021        0.4569781019        -97.93108223
      4.615077e+010        0.729477843         -130.347716         3.398328234         90.47165322        0.1393054949         15.76984983        0.4567549885        -97.97348391
      4.620076e+010        0.729482215        -130.3863454         3.395012138         90.42994035        0.1393206126         15.74444924        0.4565324123        -98.01582674
      4.625075e+010        0.729486697        -130.4248969         3.391701808         90.38826801         0.139335673         15.71908834         0.456310372        -98.05811084
      4.630074e+010       0.7294912888        -130.4633706         3.388397229         90.34663608        0.1393506764         15.69376703        0.4560888662        -98.10033633
      4.635073e+010       0.7294959901        -130.5017668         3.385098389         90.30504446        0.1393656229         15.66848521        0.4558678936        -98.14250331
      4.640072e+010       0.7295008005        -130.5400857         3.381805272         90.26349305        0.1393805128         15.64324277        0.4556474526        -98.18461192
      4.645071e+010       0.7295057198        -130.5783274         3.378517866         90.22198176        0.1393953461         15.61803961         0.455427542        -98.22666226
       4.65007e+010       0.7295107477        -130.6164922         3.375236157         90.18051046        0.1394101232         15.59287563        0.4552081604        -98.26865446
      4.655069e+010       0.7295158838        -130.6545804         3.371960131         90.13907908        0.1394248443         15.56775072        0.4549893064        -98.31058862
      4.660068e+010       0.7295211279         -130.692592         3.368689775         90.09768749        0.1394395094         15.54266478        0.4547709787        -98.35246487
      4.665067e+010       0.7295264797        -130.7305274         3.365425075         90.05633561        0.1394541189         15.51761772        0.4545531758        -98.39428332
      4.670066e+010        0.729531939        -130.7683867         3.362166017         90.01502334        0.1394686728         15.49260942        0.4543358964        -98.43604409
      4.675065e+010       0.7295375053        -130.8061701         3.358912588         89.97375056        0.1394831715          15.4676398        0.4541191393        -98.47774728
      4.680064e+010       0.7295431785        -130.8438778         3.355664774         89.93251719         0.139497615         15.44270874        0.4539029029        -98.51939302
      4.685063e+010       0.7295489582        -130.8815101         3.352422563         89.89132313        0.1395120037         15.41781615         0.453687186        -98.56098142
      4.690062e+010       0.7295548442        -130.9190671         3.349185941         89.85016827        0.1395263375         15.39296193        0.4534719873        -98.60251259
      4.695061e+010       0.7295608362         -130.956549         3.345954894         89.80905251        0.1395406169         15.36814598        0.4532573053        -98.64398665
       4.70006e+010       0.7295669338        -130.9939561         3.342729409         89.76797577        0.1395548418         15.34336821        0.4530431388        -98.68540371
      4.705059e+010       0.7295731369        -131.0312885         3.339509473         89.72693793        0.1395690126          15.3186285        0.4528294864        -98.72676388
      4.710058e+010       0.7295794451        -131.0685465         3.336295073         89.68593891        0.1395831294         15.29392676        0.4526163468        -98.76806728
      4.715057e+010       0.7295858581        -131.1057302         3.333086195          89.6449786        0.1395971924         15.26926291        0.4524037188        -98.80931402
      4.720056e+010       0.7295923758        -131.1428398         3.329882826         89.60405691        0.1396112018         15.24463682        0.4521916008         -98.8505042
      4.725055e+010       0.7295989977        -131.1798756         3.326684954         89.56317374        0.1396251577         15.22004842        0.4519799917        -98.89163795
      4.730054e+010       0.7296057236        -131.2168377         3.323492565           89.522329        0.1396390604          15.1954976        0.4517688902        -98.93271537
      4.735053e+010       0.7296125532        -131.2537264         3.320305646         89.48152259          0.13965291         15.17098427        0.4515582948        -98.97373657
      4.740052e+010       0.7296194864        -131.2905418         3.317124184         89.44075441        0.1396667067         15.14650833        0.4513482044        -99.01470167
      4.745051e+010       0.7296265227        -131.3272841         3.313948166         89.40002437        0.1396804507         15.12206967        0.4511386176        -99.05561078
       4.75005e+010       0.7296336619        -131.3639535         3.310777579         89.35933237        0.1396941422         15.09766822        0.4509295331          -99.096464
      4.755049e+010       0.7296409037        -131.4005503         3.307612411         89.31867832        0.1397077813         15.07330387        0.4507209497        -99.13726144
      4.760048e+010        0.729648248        -131.4370745         3.304452648         89.27806213        0.1397213682         15.04897653         0.450512866        -99.17800322
      4.765047e+010       0.7296556943        -131.4735265         3.301298278         89.23748369        0.1397349031         15.02468609        0.4503052808        -99.21868945
      4.770046e+010       0.7296632425        -131.5099064         3.298149287         89.19694292        0.1397483862         15.00043248        0.4500981927        -99.25932023
      4.775045e+010       0.7296708922        -131.5462143         3.295005664         89.15643973        0.1397618177         14.97621559        0.4498916005        -99.29989567
      4.780044e+010       0.7296786432        -131.5824506         3.291867395         89.11597402        0.1397751977         14.95203533         0.449685503        -99.34041588
      4.785043e+010       0.7296864952        -131.6186153         3.288734467         89.07554569        0.1397885264          14.9278916        0.4494798988        -99.38088098
      4.790042e+010        0.729694448        -131.6547087         3.285606869         89.03515466        0.1398018039         14.90378432        0.4492747867        -99.42129106
      4.795041e+010       0.7297025012        -131.6907309         3.282484587         88.99480083        0.1398150306         14.87971338        0.4490701654        -99.46164623
       4.80004e+010       0.7297106547        -131.7266822          3.27936761         88.95448412        0.1398282064         14.85567871        0.4488660337         -99.5019466
      4.805039e+010       0.7297189082        -131.7625627         3.276255923         88.91420442        0.1398413316          14.8316802        0.4486623903        -99.54219229
      4.810038e+010       0.7297272614        -131.7983726         3.273149515         88.87396165        0.1398544064         14.80771776        0.4484592339        -99.58238338
      4.815037e+010        0.729735714        -131.8341121         3.270048374         88.83375572        0.1398674309          14.7837913        0.4482565633           -99.62252
      4.820036e+010       0.7297442657        -131.8697815         3.266952487         88.79358653        0.1398804053         14.75990073        0.4480543774        -99.66260225
      4.825035e+010       0.7297529164        -131.9053808         3.263861841         88.75345401        0.1398933298         14.73604596        0.4478526747        -99.70263023
      4.830034e+010       0.7297616658        -131.9409102         3.260776424         88.71335805        0.1399062045          14.7122269        0.4476514541        -99.74260405
      4.835033e+010       0.7297705135          -131.97637         3.257696225         88.67329856        0.1399190296         14.68844346        0.4474507144        -99.78252382
      4.840032e+010       0.7297794594        -132.0117604          3.25462123         88.63327547        0.1399318053         14.66469554        0.4472504542        -99.82238963
      4.845031e+010       0.7297885032        -132.0470815         3.251551427         88.59328867        0.1399445317         14.64098306        0.4470506725         -99.8622016
       4.85003e+010       0.7297976446        -132.0823334         3.248486804         88.55333808         0.139957209         14.61730593         0.446851368        -99.90195983
      4.855029e+010       0.7298068834        -132.1175165         3.245427349         88.51342362        0.1399698374         14.59366406        0.4466525393        -99.94166442
      4.860028e+010       0.7298162193        -132.1526308          3.24237305         88.47354519         0.139982417         14.57005735        0.4464541855        -99.98131547
      4.865027e+010       0.7298256521        -132.1876766         3.239323895          88.4337027         0.139994948         14.54648573        0.4462563051        -100.0209131
      4.870026e+010       0.7298351815         -132.222654         3.236279871         88.39389607        0.1400074306          14.5229491         0.446058897        -100.0604574
      4.875025e+010       0.7298448072        -132.2575632         3.233240967         88.35412521        0.1400198648         14.49944738        0.4458619601        -100.0999485
      4.880024e+010       0.7298545291        -132.2924044          3.23020717         88.31439004         0.140032251         14.47598047         0.445665493        -100.1393864
      4.885023e+010       0.7298643468        -132.3271777         3.227178469         88.27469046        0.1400445891         14.45254829        0.4454694947        -100.1787714
      4.890022e+010       0.7298742601        -132.3618835         3.224154851          88.2350264        0.1400568795         14.42915075        0.4452739638        -100.2181034
      4.895021e+010       0.7298842689        -132.3965217         3.221136305         88.19539775        0.1400691222         14.40578777        0.4450788993        -100.2573826
       4.90002e+010       0.7298943727        -132.4310926         3.218122819         88.15580445        0.1400813174         14.38245925        0.4448842999        -100.2966091
      4.905019e+010       0.7299045714        -132.4655964          3.21511438          88.1162464        0.1400934653         14.35916512        0.4446901644         -100.335783
      4.910018e+010       0.7299148647        -132.5000333         3.212110978         88.07672352         0.140105566         14.33590529        0.4444964917        -100.3749043
      4.915017e+010       0.7299252524        -132.5344034           3.2091126         88.03723572        0.1401176197         14.31267966        0.4443032806        -100.4139733
      4.920016e+010       0.7299357343        -132.5687069         3.206119235         87.99778292        0.1401296266         14.28948816        0.4441105299        -100.4529899
      4.925015e+010         0.72994631         -132.602944          3.20313087         87.95836503        0.1401415867          14.2663307        0.4439182384        -100.4919544
      4.930014e+010       0.7299569794        -132.6371149         3.200147495         87.91898197        0.1401535002         14.24320719         0.443726405        -100.5308667
      4.935013e+010       0.7299677423        -132.6712196         3.197169097         87.87963366        0.1401653674         14.22011756        0.4435350284         -100.569727
      4.940012e+010       0.7299785982        -132.7052585         3.194195665         87.84032001        0.1401771883         14.19706171        0.4433441077        -100.6085355
      4.945011e+010       0.7299895472        -132.7392317         3.191227187         87.80104094        0.1401889631         14.17403956        0.4431536415        -100.6472921
       4.95001e+010       0.7300005888        -132.7731393         3.188263652         87.76179637         0.140200692         14.15105103        0.4429636287         -100.685997
      4.955009e+010       0.7300117228        -132.8069815         3.185305048          87.7225862        0.1402123751         14.12809603        0.4427740682        -100.7246502
      4.960008e+010       0.7300229491        -132.8407585         3.182351364         87.68341038        0.1402240125         14.10517449        0.4425849588         -100.763252
      4.965007e+010       0.7300342674        -132.8744705         3.179402588         87.64426879        0.1402356045         14.08228631        0.4423962994        -100.8018024
      4.970006e+010       0.7300456774        -132.9081175         3.176458709         87.60516138         0.140247151         14.05943142        0.4422080888        -100.8403014
      4.975005e+010       0.7300571789        -132.9416999         3.173519716         87.56608805        0.1402586524         14.03660973         0.442020326        -100.8787492
      4.980004e+010       0.7300687717        -132.9752178         3.170585596         87.52704873        0.1402701088         14.01382117        0.4418330097        -100.9171459
      4.985003e+010       0.7300804555        -133.0086713         3.167656339         87.48804333        0.1402815202         13.99106564        0.4416461388        -100.9554916
      4.990002e+010       0.7300922301        -133.0420606         3.164731934         87.44907177        0.1402928869         13.96834307        0.4414597123        -100.9937863
      4.995001e+010       0.7301040954        -133.0753859         3.161812369         87.41013397         0.140304209         13.94565337        0.4412737289        -101.0320302
             5e+010       0.7301160509        -133.1086473         3.158897633         87.37122985        0.1403154866         13.92299647        0.4410881876        -101.0702234
