! Created Wed Apr 01 23:55:13 2026
# hz S ma R 50
! 2 Port Network Data from SP1.SP block
! freq  magS11  angS11  magS21  angS21  magS12  angS12  magS22  angS22  
!     
           10000000        0.877149835      -0.03871912577         6.089925744          179.971112    8.528548732e-005         89.97459831        0.9999999155      -0.02854312229
           59990000       0.8771483609       -0.2322756418         6.089906637         179.8267012      0.000511626021         89.84761555        0.9999969607       -0.1712298838
          109980000       0.8771447812       -0.4258304707         6.089860237         179.6822917      0.000937959623         89.72063411        0.9999897851       -0.3139153306
          159970000        0.877139096       -0.6193822067         6.089786546         179.5378846      0.001364280518         89.59365506        0.9999783889        -0.456598367
          209960000       0.8771313055       -0.8129294442         6.089685566         179.3934809       0.00179058293         89.46667949        0.9999627727       -0.5992778977
          259950000       0.8771214102        -1.006470778         6.089557302         179.2490819      0.002216861087         89.33970849         0.999942937       -0.7419528276
          309940000       0.8771094106        -1.200004802          6.08940176         179.1046885      0.002643109216         89.21274316        0.9999188827       -0.8846220615
          359930000       0.8770953071        -1.393530112         6.089218944         178.9603019      0.003069321548         89.08578458        0.9998906109        -1.027284505
          409920000       0.8770791005        -1.587045304         6.089008863         178.8159231      0.003495492314         88.95883383        0.9998581226        -1.169939063
          459910000       0.8770607915        -1.780548973         6.088771525         178.6715532       0.00392161575         88.83189201        0.9998214191        -1.312584643
          509900000        0.877040381        -1.974039717         6.088506939         178.5271934      0.004347686095         88.70496019        0.9997805021        -1.455220151
          559890000         0.87701787        -2.167516132         6.088215117         178.3828447       0.00477369759         88.57803948        0.9997353732        -1.597844493
          609880000       0.8769932596        -2.360976817          6.08789607         178.2385082      0.005199644481         88.45113094        0.9996860342        -1.740456578
          659870000       0.8769665508         -2.55442037         6.087549811         178.0941849      0.005625521019         88.32423568        0.9996324871        -1.883055315
          709860000        0.876937745         -2.74784539         6.087176354          177.949876      0.006051321459         88.19735476        0.9995747342        -2.025639611
          759850000       0.8769068435        -2.941250477         6.086775714         177.8055826       0.00647704006         88.07048928        0.9995127779        -2.168208378
          809840000       0.8768738478        -3.134634234         6.086347906         177.6613057      0.006902671088         87.94364032        0.9994466206        -2.310760525
          859830000       0.8768387595        -3.327995262         6.085892949         177.5170464      0.007328208814         87.81680895        0.9993762651        -2.453294964
          909820000       0.8768015801        -3.521332165          6.08541086         177.3728058      0.007753647516         87.68999627        0.9993017143        -2.595810609
          959810000       0.8767623116        -3.714643547          6.08490166          177.228585      0.008178981479         87.56320334        0.9992229712        -2.738306372
         1009800000       0.8767209556        -3.907928013         6.084365367         177.0843851      0.008604204993         87.43643126         0.999140039        -2.880781167
         1059790000       0.8766775143         -4.10118417         6.083802005         176.9402071      0.009029312357         87.30968109        0.9990529213        -3.023233911
         1109780000       0.8766319896        -4.294410628         6.083211595         176.7960521      0.009454297877         87.18295391        0.9989616214        -3.165663521
         1159770000       0.8765843836        -4.487605995         6.082594161         176.6519212      0.009879155868          87.0562508        0.9988661432        -3.308068915
         1209760000       0.8765346987        -4.680768882         6.081949729         176.5078155       0.01030388065         86.92957283        0.9987664906        -3.450449011
         1259750000       0.8764829371        -4.873897903         6.081278323          176.363736       0.01072846656         86.80292108        0.9986626676        -3.592802731
         1309740000       0.8764291014        -5.066991671          6.08057997         176.2196838       0.01115290794         86.67629661        0.9985546785        -3.735128997
         1359730000        0.876373194        -5.260048801           6.0798547           176.07566       0.01157719913          86.5497005        0.9984425277        -3.877426732
         1409720000       0.8763152175        -5.453067913          6.07910254         175.9316657        0.0120013345         86.42313381        0.9983262198        -4.019694861
         1459710000       0.8762551748        -5.646047624         6.078323521         175.7877018       0.01242530842         86.29659761        0.9982057594        -4.161932312
         1509700000       0.8761930686        -5.838986556         6.077517674         175.6437696       0.01284911528         86.17009296        0.9980811516        -4.304138012
         1559690000       0.8761289018        -6.031883333          6.07668503           175.49987       0.01327274945         86.04362094        0.9979524014        -4.446310891
         1609680000       0.8760626774        -6.224736579         6.075825625         175.3560042       0.01369620535         85.91718259         0.997819514        -4.588449882
         1659670000       0.8759943986         -6.41754492          6.07493949         175.2121731       0.01411947739         85.79077899        0.9976824948        -4.730553916
         1709660000       0.8759240686        -6.610306987         6.074026663         175.0683778       0.01454256001         85.66441118        0.9975413494        -4.872621931
         1759650000       0.8758516906        -6.803021411         6.073087178         174.9246194       0.01496544764         85.53808023        0.9973960836        -5.014652862
         1809640000        0.875777268        -6.995686825         6.072121075          174.780899       0.01538813473         85.41178718        0.9972467032         -5.15664565
         1859630000       0.8757008043        -7.188301864          6.07112839         174.6372176       0.01581061575         85.28553309        0.9970932143        -5.298599235
         1909620000       0.8756223031        -7.380865167         6.070109164         174.4935762       0.01623288519         85.15931902        0.9969356231        -5.440512561
         1959610000        0.875541768        -7.573375375         6.069063436         174.3499759       0.01665493753           85.033146         0.996773936        -5.582384572
         2009600000       0.8754592029         -7.76583113         6.067991249         174.2064178       0.01707676729         84.90701509        0.9966081594        -5.724214216
         2059590000       0.8753746114        -7.958231078         6.066892644         174.0629028       0.01749836898         84.78092733        0.9964383002        -5.866000444
         2109580000       0.8752879977        -8.150573866         6.065767666         173.9194321       0.01791973715         84.65488375        0.9962643652        -6.007742207
         2159570000       0.8751993656        -8.342858146         6.064616358         173.7760067       0.01834086635         84.52888541        0.9960863613        -6.149438459
         2209560000       0.8751087194         -8.53508257         6.063438766         173.6326276       0.01876175115         84.40293332        0.9959042958        -6.291088157
         2259550000       0.8750160632        -8.727245796         6.062234937         173.4892958       0.01918238612         84.27702854        0.9957181759         -6.43269026
         2309540000       0.8749214013        -8.919346481         6.061004918         173.3460124       0.01960276588         84.15117209        0.9955280092         -6.57424373
         2359530000       0.8748247381        -9.111383287         6.059748758         173.2027784       0.02002288505           84.025365        0.9953338032        -6.715747531
         2409520000       0.8747260781         -9.30335488         6.058466505         173.0595949       0.02044273824         83.89960829        0.9951355658        -6.857200629
         2459510000       0.8746254258        -9.495259927          6.05715821         172.9164628       0.02086232013           83.773903         0.994933305        -6.998601994
         2509500000       0.8745227859        -9.687097099         6.055823925         172.7733832       0.02128162536         83.64825014        0.9947270287        -7.139950597
         2559490000        0.874418163        -9.878865069         6.054463702         172.6303571       0.02170064865         83.52265073        0.9945167453        -7.281245414
         2609480000       0.8743115621        -10.07056251         6.053077593         172.4873855       0.02211938468         83.39710578        0.9943024631        -7.422485423
         2659470000        0.874202988        -10.26218812         6.051665654         172.3444695       0.02253782818         83.27161632        0.9940841907        -7.563669602
         2709460000       0.8740924457        -10.45374056         6.050227939           172.20161       0.02295597391         83.14618334        0.9938619368        -7.704796936
         2759450000       0.8739799402        -10.64521852         6.048764505         172.0588081       0.02337381661         83.02080786        0.9936357102        -7.845866411
         2809440000       0.8738654768         -10.8366207         6.047275407         171.9160647       0.02379135106         82.89549088        0.9934055199        -7.986877016
         2859430000       0.8737490607         -11.0279458         6.045760705         171.7733809       0.02420857208         82.77023341        0.9931713751        -8.127827742
         2909420000       0.8736306971        -11.21919249         6.044220457         171.6307576       0.02462547448         82.64503643        0.9929332849        -8.268717586
         2959410000       0.8735103915         -11.4103595         6.042654723         171.4881959       0.02504205311         82.51990095        0.9926912589        -8.409545544
         3009400000       0.8733881493        -11.60144552         6.041063564         171.3456968       0.02545830282         82.39482796        0.9924453065         -8.55031062
         3059390000       0.8732639762        -11.79244925          6.03944704         171.2032612        0.0258742185         82.26981844        0.9921954376        -8.691011817
         3109380000       0.8731378777        -11.98336942         6.037805215         171.0608901       0.02628979505         82.14487339        0.9919416618        -8.831648144
         3159370000       0.8730098595        -12.17420474         6.036138151         170.9185846        0.0267050274         82.01999378        0.9916839893        -8.972218611
         3209360000       0.8728799276        -12.36495391         6.034445914         170.7763455        0.0271199105         81.89518059        0.9914224302        -9.112722234
         3259350000       0.8727480877        -12.55561568         6.032728568         170.6341739       0.02753443932          81.7704348        0.9911569946        -9.253158029
         3309340000       0.8726143458        -12.74618876         6.030986178         170.4920707       0.02794860885         81.64575738         0.990887693        -9.393525019
         3359330000       0.8724787079        -12.93667189         6.029218812          170.350037        0.0283624141          81.5211493         0.990614536        -9.533822228
         3409320000       0.8723411802         -13.1270638         6.027426538         170.2080736       0.02877585011         81.39661152        0.9903375341        -9.674048685
         3459310000       0.8722017688        -13.31736323         6.025609423         170.0661815       0.02918891194           81.272145        0.9900566982        -9.814203421
         3509300000         0.87206048        -13.50756892         6.023767538         169.9243618       0.02960159468         81.14775071        0.9897720393        -9.954285472
         3559290000       0.8719173201        -13.69767962         6.021900952         169.7826153       0.03001389344         81.02342959        0.9894835683        -10.09429388
         3609280000       0.8717722954        -13.88769408         6.020009737          169.640943       0.03042580334         80.89918261        0.9891912965        -10.23422768
         3659270000       0.8716254126        -14.07761106         6.018093963         169.4993459       0.03083731955         80.77501069        0.9888952352        -10.37408593
         3709260000       0.8714766781        -14.26742932         6.016153705         169.3578248       0.03124843724          80.6509148        0.9885953958        -10.51386767
         3759250000       0.8713260985        -14.45714761         6.014189034         169.2163808       0.03165915162         80.52689586        0.9882917899        -10.65357195
         3809240000       0.8711736806        -14.64676472         6.012200026         169.0750148       0.03206945791         80.40295481        0.9879844292        -10.79319785
         3859230000       0.8710194311         -14.8362794         6.010186755         168.9337277       0.03247935138         80.27909258        0.9876733255        -10.93274441
         3909220000       0.8708633568        -15.02569045         6.008149298         168.7925204       0.03288882731         80.15531011        0.9873584908        -11.07221071
         3959210000       0.8707054646        -15.21499663          6.00608773         168.6513938       0.03329788099         80.03160831        0.9870399371         -11.2115958
         4009200000       0.8705457615        -15.40419675         6.004002128          168.510349       0.03370650777          79.9079881        0.9867176767        -11.35089878
         4059190000       0.8703842545        -15.59328958         6.001892572         168.3693867         0.034114703         79.78445041        0.9863917217        -11.49011871
         4109180000       0.8702209507        -15.78227393          5.99975914          168.228508       0.03452246206         79.66099614        0.9860620847        -11.62925468
         4159170000       0.8700558572         -15.9711486         5.997601911         168.0877136       0.03492978037         79.53762619        0.9857287782        -11.76830577
         4209160000       0.8698889814        -16.15991238         5.995420966         167.9470046       0.03533665337         79.41434148        0.9853918148        -11.90727107
         4259150000       0.8697203304         -16.3485641         5.993216385         167.8063818       0.03574307651          79.2911429        0.9850512073        -12.04614968
         4309140000       0.8695499117        -16.53710256          5.99098825         167.6658462        0.0361490453         79.16803134        0.9847069686        -12.18494069
         4359130000       0.8693777326        -16.72552658         5.988736645         167.5253985       0.03655455524         79.04500771        0.9843591116        -12.32364321
         4409120000       0.8692038007          -16.913835         5.986461651         167.3850397       0.03695960189         78.92207287        0.9840076495        -12.46225635
         4459110000       0.8690281234        -17.10202664         5.984163353         167.2447707       0.03736418083         78.79922772        0.9836525955        -12.60077921
         4509100000       0.8688507083        -17.29010032         5.981841834         167.1045924       0.03776828764         78.67647314        0.9832939629        -12.73921092
         4559090000       0.8686715632         -17.4780549         5.979497182         166.9645056       0.03817191797         78.55380999        0.9829317651        -12.87755059
         4609080000       0.8684906957        -17.66588922          5.97712948         166.8245112       0.03857506748         78.43123914        0.9825660157        -13.01579734
         4659070000       0.8683081136        -17.85360213         5.974738816         166.6846101       0.03897773184         78.30876147        0.9821967283        -13.15395031
         4709060000       0.8681238247        -18.04119248         5.972325277         166.5448031       0.03937990678         78.18637782        0.9818239165        -13.29200863
         4759050000        0.867937837        -18.22865913         5.969888951         166.4050911       0.03978158804         78.06408907        0.9814475944        -13.42997143
         4809040000       0.8677501582        -18.41600094         5.967429926          166.265475       0.04018277139         77.94189604        0.9810677757        -13.56783786
         4859030000       0.8675607966         -18.6032168          5.96494829         166.1259555       0.04058345265         77.81979961        0.9806844745        -13.70560707
         4909020000         0.86736976        -18.79030556         5.962444135         165.9865335       0.04098362763         77.69780059         0.980297705        -13.84327821
         4959010000       0.8671770565        -18.97726612         5.959917549         165.8472099       0.04138329221         77.57589984        0.9799074814        -13.98085043
         5009000000       0.8669826945        -19.16409736         5.957368625         165.7079856       0.04178244226         77.45409819         0.979513818        -14.11832289
         5058990000        0.866786682        -19.35079818         5.954797453         165.5688612       0.04218107373         77.33239645        0.9791167292        -14.25569476
         5108980000       0.8665890272        -19.53736746         5.952204125         165.4298377       0.04257918255         77.21079547        0.9787162295        -14.39296521
         5158970000       0.8663897386        -19.72380411         5.949588734         165.2909159        0.0429767647         77.08929604        0.9783123335        -14.53013342
         5208960000       0.8661888244        -19.91010703         5.946951374         165.1520966       0.04337381621           76.967899         0.977905056        -14.66719856
         5258950000       0.8659862931        -20.09627516         5.944292137         165.0133806       0.04377033311         76.84660515        0.9774944116        -14.80415982
         5308940000        0.865782153        -20.28230739         5.941611119         164.8747686       0.04416631147         76.72541528        0.9770804152        -14.94101639
         5358930000       0.8655764128        -20.46820265         5.938908414         164.7362616       0.04456174739         76.60433021        0.9766630818        -15.07776746
         5408920000       0.8653690808        -20.65395988         5.936184118         164.5978603       0.04495663702         76.48335072        0.9762424265        -15.21441223
         5458910000       0.8651601658        -20.83957802         5.933438326         164.4595655        0.0453509765         76.36247761        0.9758184642         -15.3509499
         5508900000       0.8649496763        -21.02505599         5.930671134         164.3213779       0.04574476205         76.24171166        0.9753912102        -15.48737969
         5558890000        0.864737621        -21.21039275         5.927882641         164.1832984       0.04613798989         76.12105365        0.9749606798         -15.6237008
         5608880000       0.8645240086        -21.39558726         5.925072942         164.0453278       0.04653065627         76.00050435        0.9745268884        -15.75991246
         5658870000       0.8643088479        -21.58063846         5.922242136         163.9074667       0.04692275748         75.88006454        0.9740898512        -15.89601389
         5708860000       0.8640921476        -21.76554533         5.919390322          163.769716       0.04731428985         75.75973498        0.9736495839        -16.03200432
         5758850000       0.8638739166        -21.95030683         5.916517598         163.6320765       0.04770524973         75.63951643         0.973206102        -16.16788297
         5808840000       0.8636541638        -22.13492194         5.913624064         163.4945488       0.04809563349         75.51940964        0.9727594212        -16.30364909
         5858830000       0.8634328981        -22.31938964         5.910709819         163.3571338       0.04848543756         75.39941537        0.9723095571        -16.43930193
         5908820000       0.8632101283        -22.50370892         5.907774963         163.2198322       0.04887465839         75.27953437        0.9718565256        -16.57484072
         5958810000       0.8629858636        -22.68787876         5.904819598         163.0826447       0.04926329244         75.15976736        0.9714003425        -16.71026473
         6008800000       0.8627601129        -22.87189818         5.901843823         162.9455721       0.04965133624         75.04011508        0.9709410237        -16.84557322
         6058790000       0.8625328852        -23.05576617         5.898847741          162.808615       0.05003878633         74.92057827        0.9704785853        -16.98076544
         6108780000       0.8623041897        -23.23948175         5.895831454         162.6717743       0.05042563927         74.80115765        0.9700130432        -17.11584066
         6158770000       0.8620740355        -23.42304393         5.892795064         162.5350506       0.05081189169         74.68185394        0.9695444136        -17.25079817
         6208760000       0.8618424317        -23.60645173         5.889738673         162.3984447       0.05119754021         74.56266785        0.9690727126        -17.38563723
         6258750000       0.8616093875        -23.78970419         5.886662385         162.2619572       0.05158258151         74.44360009        0.9685979566        -17.52035714
         6308740000       0.8613749121        -23.97280033         5.883566303         162.1255889        0.0519670123         74.32465137        0.9681201617        -17.65495718
         6358730000       0.8611390148         -24.1557392         5.880450531         161.9893405       0.05235082931         74.20582239        0.9676393443        -17.78943664
         6408720000       0.8609017049        -24.33851985         5.877315173         161.8532126       0.05273402931         74.08711383        0.9671555209        -17.92379483
         6458710000       0.8606629915        -24.52114132         5.874160333          161.717206       0.05311660909         73.96852639        0.9666687079        -18.05803106
         6508700000       0.8604228842        -24.70360268         5.870986117         161.5813214       0.05349856551         73.85006074        0.9661789218        -18.19214463
         6558690000       0.8601813921        -24.88590299         5.867792629         161.4455593       0.05387989541         73.73171758        0.9656861792        -18.32613486
         6608680000       0.8599385248        -25.06804133         5.864579976         161.3099205       0.05426059571         73.61349757        0.9651904966        -18.46000106
         6658670000       0.8596942916        -25.25001676         5.861348262         161.1744057       0.05464066333         73.49540137        0.9646918909        -18.59374257
         6708660000       0.8594487019        -25.43182838         5.858097595         161.0390156       0.05502009523         73.37742966        0.9641903786        -18.72735872
         6758650000       0.8592017651        -25.61347527          5.85482808         160.9037507       0.05539888842         73.25958308        0.9636859765        -18.86084884
         6808640000       0.8589534909        -25.79495653         5.851539824         160.7686117       0.05577703993         73.14186229        0.9631787015        -18.99421228
         6858630000       0.8587038886        -25.97627125         5.848232934         160.6335993       0.05615454681         73.02426793        0.9626685703        -19.12744838
         6908620000       0.8584529677        -26.15741856         5.844907518         160.4987142       0.05653140617         72.90680065        0.9621555999        -19.26055649
         6958610000       0.8582007379        -26.33839755         5.841563682         160.3639569       0.05690761513         72.78946107        0.9616398073        -19.39353598
         7008600000       0.8579472086        -26.51920736         5.838201536         160.2293281       0.05728317085         72.67224984        0.9611212093         -19.5263862
         7058590000       0.8576923895        -26.69984711         5.834821186         160.0948284       0.05765807053         72.55516758         0.960599823        -19.65910653
         7108580000       0.8574362901        -26.88031593         5.831422741         159.9604584       0.05803231139          72.4382149        0.9600756654        -19.79169634
         7158570000       0.8571789201        -27.06061295          5.82800631         159.8262188       0.05840589069         72.32139242        0.9595487536        -19.92415501
         7208560000        0.856920289        -27.24073734         5.824572001         159.6921102       0.05877880573         72.20470075        0.9590191048        -20.05648192
         7258550000       0.8566604065        -27.42068823         5.821119924         159.5581331       0.05915105383         72.08814049         0.958486736        -20.18867646
         7308540000       0.8563992823        -27.60046478         5.817650186         159.4242882       0.05952263235         71.97171225        0.9579516646        -20.32073803
         7358530000        0.856136926        -27.78006617         5.814162899          159.290576       0.05989353867          71.8554166        0.9574139075        -20.45266603
         7408520000       0.8558733473        -27.95949155          5.81065817         159.1569972       0.06026377023         71.73925415        0.9568734822        -20.58445987
         7458510000       0.8556085559        -28.13874011         5.807136111         159.0235524       0.06063332448         71.62322547        0.9563304059        -20.71611895
         7508500000       0.8553425616        -28.31781102          5.80359683          158.890242        0.0610021989         71.50733114        0.9557846959        -20.84764269
         7558490000       0.8550753739        -28.49670349         5.800040438         158.7570668       0.06137039102         71.39157173        0.9552363694        -20.97903052
         7608480000       0.8548070028        -28.67541669         5.796467045         158.6240271        0.0617378984          71.2759478        0.9546854439        -21.11028187
         7658470000       0.8545374578        -28.85394984         5.792876761         158.4911237       0.06210471861         71.16045993        0.9541319367        -21.24139615
         7708460000       0.8542667487        -29.03230215         5.789269697         158.3583571       0.06247084928         71.04510865        0.9535758652        -21.37237283
         7758450000       0.8539948854        -29.21047282         5.785645963         158.2257277       0.06283628807         70.92989453        0.9530172468        -21.50321133
         7808440000       0.8537218775        -29.38846108         5.782005671         158.0932363       0.06320103265         70.81481811         0.952456099        -21.63391111
         7858430000       0.8534477348        -29.56626616          5.77834893         157.9608832       0.06356508074         70.69987992        0.9518924391        -21.76447162
         7908420000        0.853172467        -29.74388728         5.774675853         157.8286691       0.06392843009          70.5850805        0.9513262846        -21.89489232
         7958410000       0.8528960841        -29.92132369          5.77098655         157.6965944       0.06429107849         70.47042038        0.9507576531        -22.02517268
         8008400000       0.8526185957        -30.09857464         5.767281131         157.5646598       0.06465302374         70.35590008         0.950186562        -22.15531216
         8058390000       0.8523400115        -30.27563938         5.763559709         157.4328656       0.06501426369         70.24152013        0.9496130288        -22.28531025
         8108380000       0.8520603416        -30.45251715         5.759822395         157.3012125       0.06537479623         70.12728102        0.9490370711        -22.41516642
         8158370000       0.8517795955        -30.62920724           5.7560693         157.1697009       0.06573461926         70.01318327        0.9484587063        -22.54488017
         8208360000       0.8514977831        -30.80570891         5.752300536         157.0383313       0.06609373073         69.89922738         0.947877952        -22.67445097
         8258350000       0.8512149141        -30.98202144         5.748516213         156.9071043        0.0664521286         69.78541384        0.9472948257        -22.80387834
         8308340000       0.8509309984        -31.15814412         5.744716444         156.7760203       0.06680981089         69.67174315        0.9467093451        -22.93316177
         8358330000       0.8506460458        -31.33407622         5.740901341         156.6450798       0.06716677564          69.5582158        0.9461215275        -23.06230078
         8408320000       0.8503600661        -31.50981706         5.737071014         156.5142833       0.06752302091         69.44483225        0.9455313907        -23.19129487
         8458310000       0.8500730689        -31.68536593         5.733225576         156.3836313       0.06787854481         69.33159299        0.9449389522        -23.32014356
         8508300000       0.8497850642        -31.86072214         5.729365137         156.2531242       0.06823334547         69.21849849        0.9443442295        -23.44884638
         8558290000       0.8494960617        -32.03588501         5.725489811         156.1227625       0.06858742106         69.10554921        0.9437472402        -23.57740286
         8608280000       0.8492060711        -32.21085386         5.721599708         155.9925466       0.06894076977         68.99274561        0.9431480019        -23.70581253
         8658270000       0.8489151023        -32.38562802          5.71769494         155.8624771       0.06929338984         68.88008814        0.9425465321        -23.83407493
         8708260000       0.8486231649        -32.56020682         5.713775619         155.7325544       0.06964527951         68.76757725        0.9419428484        -23.96218961
         8758250000       0.8483302689         -32.7345896         5.709841856         155.6027788       0.06999643709         68.65521339        0.9413369684        -24.09015612
         8808240000       0.8480364238        -32.90877572         5.705893764          155.473151       0.07034686089         68.54299699        0.9407289096        -24.21797401
         8858230000       0.8477416395        -33.08276451         5.701931453         155.3436711       0.07069654927         68.43092848        0.9401186896        -24.34564285
         8908220000       0.8474459258        -33.25655535         5.697955036         155.2143399       0.07104550062         68.31900829         0.939506326        -24.47316221
         8958210000       0.8471492922         -33.4301476         5.693964623         155.0851575       0.07139371333         68.20723685        0.9388918361        -24.60053164
         9008200000       0.8468517486        -33.60354063         5.689960326         154.9561245       0.07174118587         68.09561456        0.9382752377        -24.72775074
         9058190000       0.8465533046        -33.77673382         5.685942258         154.8272412       0.07208791671         67.98414185        0.9376565482        -24.85481908
         9108180000         0.84625397        -33.94972655         5.681910528         154.6985082       0.07243390435         67.87281911        0.9370357851        -24.98173626
         9158170000       0.8459537545        -34.12251822         5.677865248         154.5699257       0.07277914734         67.76164675        0.9364129659        -25.10850186
         9208160000       0.8456526676        -34.29510822          5.67380653         154.4414941       0.07312364424         67.65062516        0.9357881081        -25.23511548
         9258150000       0.8453507192        -34.46749596         5.669734484          154.313214       0.07346739364         67.53975474        0.9351612291        -25.36157672
         9308140000       0.8450479188        -34.63968083         5.665649221         154.1850855       0.07381039418         67.42903586        0.9345323465         -25.4878852
         9358130000       0.8447442761        -34.81166227         5.661550854         154.0571093       0.07415264451         67.31846892        0.9339014777        -25.61404053
         9408120000       0.8444398006         -34.9834397         5.657439491         153.9292855       0.07449414332         67.20805428          0.93326864        -25.74004232
         9458110000       0.8441345021        -35.15501253         5.653315245         153.8016146       0.07483488933         67.09779231        0.9326338509         -25.8658902
         9508100000       0.8438283901         -35.3263802         5.649178225         153.6740969       0.07517488129         66.98768338        0.9319971278         -25.9915838
         9558090000       0.8435214742        -35.49754216         5.645028542         153.5467328       0.07551411797         66.87772785         0.931358488        -26.11712276
         9608080000        0.843213764        -35.66849786         5.640866306         153.4195227       0.07585259818         66.76792607        0.9307179489        -26.24250671
         9658070000       0.8429052689        -35.83924673         5.636691628         153.2924669       0.07619032075         66.65827839        0.9300755277        -26.36773529
         9708060000       0.8425959986        -36.00978825         5.632504618         153.1655657       0.07652728455         66.54878516        0.9294312419        -26.49280816
         9758050000       0.8422859625        -36.18012188         5.628305385         153.0388196       0.07686348847         66.43944671        0.9287851087        -26.61772498
         9808040000       0.8419751702        -36.35024708         5.624094039         152.9122288       0.07719893144         66.33026338        0.9281371453        -26.74248539
         9858030000       0.8416636311        -36.52016334         5.619870691         152.7857936        0.0775336124         66.22123551         0.927487369        -26.86708907
         9908020000       0.8413513546        -36.68987014         5.615635449         152.6595144       0.07786753034          66.1123634        0.9268357969        -26.99153568
         9958010000       0.8410383503        -36.85936696         5.611388422         152.5333915       0.07820068426         66.00364738        0.9261824463         -27.1158249
        1.0008e+010       0.8407246275        -37.02865331         5.607129721         152.4074253        0.0785330732         65.89508777        0.9255273342        -27.23995642
      1.005799e+010       0.8404101956        -37.19772869         5.602859453         152.2816159       0.07886469622         65.78668487        0.9248704779         -27.3639299
      1.010798e+010        0.840095064        -37.36659259         5.598577728         152.1559638       0.07919555242           65.678439        0.9242118943        -27.48774505
      1.015797e+010        0.839779242        -37.53524454         5.594284654         152.0304692       0.07952564092         65.57035043        0.9235516006        -27.61140156
      1.020796e+010        0.839462739        -37.70368405         5.589980339         151.9051325       0.07985496087         65.46241949        0.9228896138        -27.73489913
      1.025795e+010       0.8391455643        -37.87191065         5.585664892         151.7799539       0.08018351144         65.35464644        0.9222259508        -27.85823746
      1.030794e+010       0.8388277272        -38.03992387          5.58133842         151.6549337       0.08051129184         65.24703157        0.9215606287        -27.98141626
      1.035793e+010       0.8385092369        -38.20772325         5.577001032         151.5300721       0.08083830129         65.13957518        0.9208936643        -28.10443525
      1.040792e+010       0.8381901027        -38.37530832         5.572652835         151.4053696       0.08116453906         65.03227752        0.9202250745        -28.22729414
      1.045791e+010       0.8378703338        -38.54267865         5.568293935         151.2808262       0.08149000443         64.92513887        0.9195548763        -28.34999266
       1.05079e+010       0.8375499393        -38.70983378         5.563924442         151.1564424       0.08181469672          64.8181595        0.9188830864        -28.47253054
      1.055789e+010       0.8372289285        -38.87677327          5.55954446         151.0322183       0.08213861526         64.71133966        0.9182097216        -28.59490751
      1.060788e+010       0.8369073104        -39.04349669         5.555154097         150.9081543       0.08246175941         64.60467961        0.9175347987        -28.71712331
      1.065787e+010       0.8365850943        -39.21000361         5.550753459         150.7842505       0.08278412858          64.4981796        0.9168583343        -28.83917769
      1.070786e+010       0.8362622891        -39.37629362         5.546342652         150.6605072       0.08310572217         64.39183987        0.9161803452        -28.96107038
      1.075785e+010       0.8359389039        -39.54236628         5.541921783         150.5369247       0.08342653964         64.28566068        0.9155008479        -29.08280115
      1.080784e+010       0.8356149478        -39.70822121         5.537490957         150.4135032       0.08374658044         64.17964225        0.9148198591        -29.20436975
      1.085783e+010       0.8352904297        -39.87385798         5.533050278         150.2902429       0.08406584409         64.07378481        0.9141373953        -29.32577594
      1.090782e+010       0.8349653587         -40.0392762         5.528599854          150.167144        0.0843843301          63.9680886         0.913453473        -29.44701949
      1.095781e+010       0.8346397437        -40.20447547         5.524139787         150.0442069       0.08470203802         63.86255383        0.9127681087        -29.56810017
       1.10078e+010       0.8343135936        -40.36945542         5.519670183         149.9214316       0.08501896742         63.75718073        0.9120813188        -29.68901776
      1.105779e+010       0.8339869172        -40.53421565         5.515191146         149.7988185        0.0853351179          63.6519695        0.9113931196        -29.80977204
      1.110778e+010       0.8336597235         -40.6987558         5.510702781         149.6763676       0.08565048908         63.54692036        0.9107035276        -29.93036279
      1.115777e+010       0.8333320213        -40.86307548          5.50620519         149.5540793       0.08596508061          63.4420335        0.9100125589         -30.0507898
      1.120776e+010       0.8330038194        -41.02717434         5.501698478         149.4319538       0.08627889216         63.33730914        0.9093202299        -30.17105287
      1.125775e+010       0.8326751265        -41.19105202         5.497182747         149.3099911       0.08659192344         63.23274746        0.9086265567         -30.2911518
      1.130774e+010       0.8323459513        -41.35470816         5.492658101         149.1881916       0.08690417415         63.12834865        0.9079315555        -30.41108639
      1.135773e+010       0.8320163027        -41.51814241         5.488124642         149.0665553       0.08721564405          63.0241129        0.9072352424        -30.53085644
      1.140772e+010       0.8316861892        -41.68135443         5.483582472         148.9450826       0.08752633291         62.92004039        0.9065376333        -30.65046177
      1.145771e+010       0.8313556196        -41.84434389         5.479031693         148.8237735       0.08783624052          62.8161313        0.9058387445         -30.7699022
       1.15077e+010       0.8310246023        -42.00711045         5.474472408         148.7026282        0.0881453667          62.7123858        0.9051385916        -30.88917755
      1.155769e+010        0.830693146        -42.16965379         5.469904716          148.581647       0.08845371128         62.60880407        0.9044371908        -31.00828764
      1.160768e+010       0.8303612593        -42.33197358          5.46532872         148.4608299       0.08876127414         62.50538625        0.9037345578        -31.12723231
      1.165767e+010       0.8300289506        -42.49406951          5.46074452         148.3401772       0.08906805516         62.40213251        0.9030307085        -31.24601138
      1.170766e+010       0.8296962284        -42.65594127         5.456152217         148.2196889       0.08937405425         62.29904302        0.9023256585         -31.3646247
      1.175765e+010       0.8293631012        -42.81758855          5.45155191         148.0993653       0.08967927135         62.19611791        0.9016194237        -31.48307211
      1.180764e+010       0.8290295774        -42.97901106         5.446943699         147.9792065       0.08998370641         62.09335734        0.9009120196        -31.60135346
      1.185763e+010       0.8286956653         -43.1402085         5.442327684         147.8592126        0.0902873594         61.99076144        0.9002034617        -31.71946859
      1.190762e+010       0.8283613733        -43.30118059         5.437703964         147.7393837       0.09059023034         61.88833036        0.8994937658        -31.83741737
      1.195761e+010       0.8280267098        -43.46192703         5.433072637         147.6197201       0.09089231924         61.78606422        0.8987829472        -31.95519966
       1.20076e+010       0.8276916829        -43.62244755         5.428433802         147.5002218       0.09119362614         61.68396317        0.8980710214        -32.07281531
      1.205759e+010       0.8273563009        -43.78274189         5.423787557          147.380889       0.09149415113         61.58202732        0.8973580038         -32.1902642
      1.210758e+010        0.827020572        -43.94280976         5.419133999         147.2617217       0.09179389428          61.4802568        0.8966439096        -32.30754621
      1.215757e+010       0.8266845045        -44.10265091         5.414473227         147.1427202        0.0920928557         61.37865171        0.8959287541         -32.4246612
      1.220756e+010       0.8263481063        -44.26226508         5.409805336         147.0238844       0.09239103553         61.27721219        0.8952125526        -32.54160905
      1.225755e+010       0.8260113856        -44.42165202         5.405130424         146.9052146       0.09268843392         61.17593832        0.8944953202        -32.65838966
      1.230754e+010       0.8256743505        -44.58081149         5.400448586         146.7867109       0.09298505105         61.07483023         0.893777072        -32.77500292
      1.235753e+010       0.8253370089        -44.73974323         5.395759919         146.6683732        0.0932808871         60.97388801         0.893057823         -32.8914487
      1.240752e+010       0.8249993689        -44.89844701         5.391064519         146.5502018        0.0935759423         60.87311175        0.8923375882        -33.00772692
      1.245751e+010       0.8246614385        -45.05692261          5.38636248         146.4321967       0.09387021687         60.77250156        0.8916163825        -33.12383748
       1.25075e+010       0.8243232254        -45.21516978         5.381653897         146.3143581       0.09416371108         60.67205751        0.8908942208        -33.23978027
      1.255749e+010       0.8239847376        -45.37318833         5.376938864         146.1966859        0.0944564252          60.5717797        0.8901711179         -33.3555552
      1.260748e+010        0.823645983        -45.53097801         5.372217477         146.0791803       0.09474835953          60.4716682        0.8894470885         -33.4711622
      1.265747e+010       0.8233069693        -45.68853863         5.367489828         145.9618414       0.09503951438         60.37172309        0.8887221472        -33.58660118
      1.270746e+010       0.8229677042        -45.84586997          5.36275601         145.8446692        0.0953298901         60.27194445        0.8879963088        -33.70187205
      1.275745e+010       0.8226281956        -46.00297184         5.358016117         145.7276638       0.09561948702         60.17233234        0.8872695878        -33.81697475
      1.280744e+010        0.822288451        -46.15984403         5.353270241         145.6108253       0.09590830554         60.07288684        0.8865419987        -33.93190919
      1.285743e+010       0.8219484781        -46.31648636         5.348518475         145.4941538       0.09619634604         59.97360799        0.8858135559        -34.04667532
      1.290742e+010       0.8216082846        -46.47289864         5.343760909         145.3776492       0.09648360893         59.87449587        0.8850842737        -34.16127307
      1.295741e+010       0.8212678779        -46.62908068         5.338997637         145.2613117       0.09677009464         59.77555052        0.8843541666        -34.27570238
       1.30074e+010       0.8209272657         -46.7850323         5.334228747         145.1451412       0.09705580363           59.676772        0.8836232487        -34.38996319
      1.305739e+010       0.8205864554        -46.94075334         5.329454331          145.029138       0.09734073637         59.57816035        0.8828915343        -34.50405545
      1.310738e+010       0.8202454544        -47.09624362          5.32467448         144.9133019       0.09762489333         59.47971561        0.8821590374         -34.6179791
      1.315737e+010       0.8199042702        -47.25150298         5.319889283         144.7976331       0.09790827503         59.38143783        0.8814257722        -34.73173411
      1.320736e+010       0.8195629102        -47.40653126         5.315098829         144.6821315       0.09819088199         59.28332704        0.8806917526        -34.84532044
      1.325735e+010       0.8192213815        -47.56132831         5.310303207         144.5667972       0.09847271474         59.18538327        0.8799569926        -34.95873804
      1.330734e+010       0.8188796917        -47.71589397         5.305502507         144.4516303       0.09875377384         59.08760655         0.879221506        -35.07198687
      1.335733e+010       0.8185378478         -47.8702281         5.300696815         144.3366307       0.09903405987         58.98999692        0.8784853066        -35.18506692
      1.340732e+010       0.8181958572        -48.02433056         5.295886221         144.2217986       0.09931357343         58.89255438        0.8777484083        -35.29797815
      1.345731e+010       0.8178537269        -48.17820122         5.291070811         144.1071338       0.09959231511         58.79527895        0.8770108246        -35.41072053
       1.35073e+010       0.8175114642        -48.33183994         5.286250672         143.9926364       0.09987028555         58.69817066        0.8762725692        -35.52329405
      1.355729e+010        0.817169076        -48.48524659         5.281425891         143.8783065        0.1001474854         58.60122952        0.8755336556        -35.63569869
      1.360728e+010       0.8168265696        -48.63842106         5.276596555          143.764144        0.1004239153         58.50445552        0.8747940974        -35.74793443
      1.365727e+010       0.8164839517        -48.79136322         5.271762748          143.650149        0.1006995759         58.40784868        0.8740539079        -35.86000127
      1.370726e+010       0.8161412295        -48.94407295         5.266924556         143.5363214         0.100974468         58.31140899        0.8733131005        -35.97189919
      1.375725e+010       0.8157984099        -49.09655016         5.262082064         143.4226612        0.1012485922         58.21513646        0.8725716884         -36.0836282
      1.380724e+010       0.8154554997        -49.24879473         5.257235357         143.3091685        0.1015219492         58.11903108         0.871829685        -36.19518829
      1.385723e+010       0.8151125058        -49.40080657         5.252384518         143.1958433        0.1017945399         58.02309284        0.8710871033        -36.30657947
      1.390722e+010        0.814769435        -49.55258557         5.247529632         143.0826854        0.1020663648         57.92732172        0.8703439564        -36.41780174
      1.395721e+010       0.8144262941        -49.70413164         5.242670781          142.969695         0.102337425         57.83171772        0.8696002574        -36.52885512
       1.40072e+010       0.8140830898        -49.85544471         5.237808048          142.856872         0.102607721         57.73628081        0.8688560193        -36.63973961
      1.405719e+010       0.8137398287        -50.00652467         5.232941517         142.7442163        0.1028772537         57.64101097        0.8681112548        -36.75045523
      1.410718e+010       0.8133965175        -50.15737146         5.228071268          142.631728         0.103146024         57.54590818        0.8673659768          -36.861002
      1.415717e+010       0.8130531629          -50.307985         5.223197383          142.519407        0.1034140326         57.45097241        0.8666201982        -36.97137995
      1.420716e+010       0.8127097713        -50.45836521         5.218319944         142.4072533        0.1036812804         57.35620362        0.8658739315        -37.08158909
      1.425715e+010       0.8123663494        -50.60851203         5.213439031         142.2952668        0.1039477683         57.26160179        0.8651271894        -37.19162946
      1.430714e+010       0.8120229035         -50.7584254         5.208554725         142.1834476        0.1042134971         57.16716687        0.8643799844        -37.30150109
      1.435713e+010       0.8116794401        -50.90810526         5.203667105         142.0717955        0.1044784677         57.07289882        0.8636323291        -37.41120401
      1.440712e+010       0.8113359657        -51.05755154          5.19877625         141.9603106         0.104742681          56.9787976        0.8628842358        -37.52073827
      1.445711e+010       0.8109924865        -51.20676421         5.193882241         141.8489928         0.105006138         56.88486317        0.8621357169         -37.6301039
       1.45071e+010       0.8106490089        -51.35574321         5.188985155          141.737842        0.1052688395         56.79109547        0.8613867846        -37.73930094
      1.455709e+010       0.8103055391         -51.5044885          5.18408507         141.6268582        0.1055307866         56.69749446        0.8606374513        -37.84832945
      1.460708e+010       0.8099620834        -51.65300004         5.179182065         141.5160413          0.10579198         56.60406007         0.859887729        -37.95718947
      1.465707e+010        0.809618648         -51.8012778         5.174276217         141.4053913         0.106052421         56.51079225        0.8591376299        -38.06588105
      1.470706e+010        0.809275239        -51.94932175         5.169367602         141.2949082        0.1063121103         56.41769093        0.8583871658        -38.17440426
      1.475705e+010       0.8089318625        -52.09713185         5.164456296         141.1845918         0.106571049         56.32475606        0.8576363489        -38.28275914
      1.480704e+010       0.8085885246        -52.24470808         5.159542377         141.0744421        0.1068292382         56.23198756        0.8568851908        -38.39094576
      1.485703e+010       0.8082452313        -52.39205043          5.15462592          140.964459        0.1070866787         56.13938536        0.8561337036        -38.49896419
      1.490702e+010       0.8079019886        -52.53915888         5.149706999         140.8546424        0.1073433718          56.0469494        0.8553818988         -38.6068145
      1.495701e+010       0.8075588025        -52.68603341          5.14478569         140.7449924        0.1075993183          55.9546796        0.8546297882        -38.71449674
        1.5007e+010       0.8072156788        -52.83267402         5.139862066         140.6355087        0.1078545194         55.86257587        0.8538773834        -38.82201099
      1.505699e+010       0.8068726235         -52.9790807         5.134936202         140.5261914        0.1081089761         55.77063815        0.8531246958        -38.92935734
      1.510698e+010       0.8065296422        -53.12525346         5.130008171         140.4170403        0.1083626895         55.67886633        0.8523717371        -39.03653585
      1.515697e+010       0.8061867409        -53.27119228         5.125078047         140.3080553        0.1086156608         55.58726035        0.8516185185        -39.14354661
      1.520696e+010       0.8058439252        -53.41689719         5.120145901         140.1992364        0.1088678909         55.49582011        0.8508650514        -39.25038969
      1.525695e+010       0.8055012008        -53.56236818         5.115211806         140.0905835         0.109119381         55.40454551         0.850111347         -39.3570652
      1.530694e+010       0.8051585734        -53.70760528         5.110275833         139.9820964        0.1093701323         55.31343647        0.8493574166        -39.46357321
      1.535693e+010       0.8048160486        -53.85260849         5.105338055         139.8737752        0.1096201458         55.22249289        0.8486032713        -39.56991381
      1.540692e+010        0.804473632        -53.99737785         5.100398541         139.7656196        0.1098694227         55.13171466        0.8478489221         -39.6760871
      1.545691e+010       0.8041313292        -54.14191337         5.095457362         139.6576296        0.1101179642         55.04110169        0.8470943801        -39.78209318
       1.55069e+010       0.8037891455        -54.28621508         5.090514589         139.5498051        0.1103657715         54.95065387         0.846339656        -39.88793214
      1.555689e+010       0.8034470865        -54.43028301          5.08557029          139.442146        0.1106128457          54.8603711        0.8455847609        -39.99360408
      1.560688e+010       0.8031051575        -54.57411719         5.080624535         139.3346521        0.1108591879         54.77025326        0.8448297055        -40.09910911
      1.565687e+010        0.802763364        -54.71771767         5.075677393         139.2273234        0.1111047995         54.68030025        0.8440745004        -40.20444734
      1.570686e+010       0.8024217112        -54.86108448         5.070728932         139.1201597        0.1113496816         54.59051195        0.8433191564        -40.30961887
      1.575685e+010       0.8020802045        -55.00421767          5.06577922          139.013161        0.1115938354         54.50088824        0.8425636841        -40.41462381
      1.580684e+010       0.8017388491        -55.14711728         5.060828324         138.9063271        0.1118372622         54.41142901        0.8418080938        -40.51946227
      1.585683e+010       0.8013976502        -55.28978337         5.055876312         138.7996579        0.1120799631         54.32213413        0.8410523962        -40.62413438
      1.590682e+010        0.801056613        -55.43221599         5.050923249         138.6931532        0.1123219395         54.23300349        0.8402966015        -40.72864025
      1.595681e+010       0.8007157426         -55.5744152         5.045969202          138.586813        0.1125631926         54.14403694        0.8395407201           -40.83298
       1.60068e+010       0.8003750441        -55.71638105         5.041014237         138.4806371        0.1128037236         54.05523438        0.8387847623        -40.93715375
      1.605679e+010       0.8000345225        -55.85811362         5.036058419         138.3746254        0.1130435339         53.96659566        0.8380287381        -41.04116163
      1.610678e+010       0.7996941829        -55.99961296         5.031101813         138.2687777        0.1132826246         53.87812066        0.8372726577        -41.14500376
      1.615677e+010       0.7993540302        -56.14087915         5.026144484          138.163094        0.1135209972         53.78980923        0.8365165312        -41.24868027
      1.620676e+010       0.7990140693        -56.28191227         5.021186495          138.057574        0.1137586529         53.70166125        0.8357603685         -41.3521913
      1.625675e+010       0.7986743052        -56.42271238          5.01622791         137.9522177         0.113995593         53.61367657        0.8350041796        -41.45553697
      1.630674e+010       0.7983347427        -56.56327957         5.011268792          137.847025        0.1142318187         53.52585505        0.8342479742        -41.55871743
      1.635673e+010       0.7979953865        -56.70361392         5.006309204         137.7419955        0.1144673316         53.43819655        0.8334917621        -41.66173281
      1.640672e+010       0.7976562415        -56.84371551         5.001349209         137.6371293        0.1147021328         53.35070092        0.8327355531        -41.76458325
      1.645671e+010       0.7973173124        -56.98358443         4.996388868         137.5324262        0.1149362237         53.26336802        0.8319793568        -41.86726889
       1.65067e+010       0.7969786039        -57.12322078         4.991428243          137.427886        0.1151696057          53.1761977        0.8312231828        -41.96978988
      1.655669e+010       0.7966401206        -57.26262465         4.986467395         137.3235086        0.1154022801          53.0891898        0.8304670405        -42.07214636
      1.660668e+010       0.7963018672        -57.40179613         4.981506384         137.2192938        0.1156342483         53.00234417        0.8297109395        -42.17433848
      1.665667e+010       0.7959638482        -57.54073533         4.976545272         137.1152415        0.1158655117         52.91566066         0.828954889        -42.27636639
      1.670666e+010       0.7956260681        -57.67944235         4.971584117         137.0113515        0.1160960716          52.8291391        0.8281988985        -42.37823025
      1.675665e+010       0.7952885315        -57.81791729         4.966622979         136.9076236        0.1163259293         52.74277935        0.8274429771         -42.4799302
      1.680664e+010       0.7949512428        -57.95616026         4.961661918         136.8040578        0.1165550864         52.65658123         0.826687134        -42.58146641
      1.685663e+010       0.7946142065        -58.09417138         4.956700991         136.7006537        0.1167835442         52.57054458        0.8259313784        -42.68283903
      1.690662e+010       0.7942774268        -58.23195075         4.951740257         136.5974114        0.1170113041         52.48466924        0.8251757192        -42.78404821
      1.695661e+010       0.7939409082         -58.3694985         4.946779774         136.4943305        0.1172383675         52.39895504        0.8244201655        -42.88509413
       1.70066e+010        0.793604655        -58.50681475         4.941819599          136.391411        0.1174647358         52.31340182        0.8236647262        -42.98597695
      1.705659e+010       0.7932686714        -58.64389961         4.936859789         136.2886526        0.1176904105          52.2280094        0.8229094102        -43.08669682
      1.710658e+010       0.7929329617        -58.78075321           4.9319004         136.1860552         0.117915393          52.1427776        0.8221542261        -43.18725393
      1.715657e+010         0.79259753        -58.91737568         4.926941489         136.0836187        0.1181396847         52.05770626        0.8213991829        -43.28764843
      1.720656e+010       0.7922623806        -59.05376715         4.921983112         135.9813428        0.1183632871          51.9727952         0.820644289        -43.38788049
      1.725655e+010       0.7919275174        -59.18992776         4.917025324         135.8792273        0.1185862016         51.88804424        0.8198895531         -43.4879503
      1.730654e+010       0.7915929447        -59.32585763         4.912068179         135.7772722        0.1188084296          51.8034532        0.8191349838        -43.58785802
      1.735653e+010       0.7912586664        -59.46155691         4.907111733         135.6754771        0.1190299727          51.7190219        0.8183805895        -43.68760383
      1.740652e+010       0.7909246866        -59.59702573         4.902156039          135.573842        0.1192508323         51.63475016        0.8176263786        -43.78718791
      1.745651e+010       0.7905910092        -59.73226425         4.897201151         135.4723666        0.1194710098         51.55063779        0.8168723594        -43.88661043
       1.75065e+010       0.7902576381        -59.86727259         4.892247122         135.3710508        0.1196905068          51.4666846        0.8161185403        -43.98587158
      1.755649e+010       0.7899245773        -60.00205093         4.887294006         135.2698944        0.1199093247         51.38289041        0.8153649294        -44.08497154
      1.760648e+010       0.7895918305        -60.13659939         4.882341854         135.1688971         0.120127465         51.29925504        0.8146115349        -44.18391049
      1.765647e+010       0.7892594018        -60.27091814          4.87739072         135.0680588        0.1203449291         51.21577828        0.8138583649        -44.28268862
      1.770646e+010       0.7889272947        -60.40500734         4.872440654         134.9673794        0.1205617187         51.13245994        0.8131054274        -44.38130612
      1.775645e+010        0.788595513        -60.53886713         4.867491709         134.8668585        0.1207778352         51.04929984        0.8123527303        -44.47976318
      1.780644e+010       0.7882640606        -60.67249768         4.862543934         134.7664961        0.1209932801         50.96629777        0.8116002816        -44.57805997
      1.785643e+010        0.787932941        -60.80589916         4.857597381         134.6662918        0.1212080548         50.88345354        0.8108480891        -44.67619671
      1.790642e+010       0.7876021579        -60.93907172         4.852652099         134.5662456         0.121422161         50.80076695        0.8100961606        -44.77417357
      1.795641e+010       0.7872717149        -61.07201553         4.847708139         134.4663572        0.1216356002          50.7182378        0.8093445038        -44.87199076
       1.80064e+010       0.7869416156        -61.20473077          4.84276555         134.3666265        0.1218483738         50.63586589        0.8085931264        -44.96964847
      1.805639e+010       0.7866118635         -61.3372176          4.83782438         134.2670531        0.1220604834         50.55365101        0.8078420359         -45.0671469
      1.810638e+010       0.7862824621         -61.4694762          4.83288468          134.167637        0.1222719305         50.47159296        0.8070912399        -45.16448625
      1.815637e+010       0.7859534148        -61.60150674         4.827946495         134.0683778        0.1224827166         50.38969154        0.8063407458        -45.26166672
      1.820636e+010       0.7856247252         -61.7333094         4.823009876         133.9692755        0.1226928434         50.30794654        0.8055905611         -45.3586885
      1.825635e+010       0.7852963966        -61.86488437         4.818074868         133.8703298        0.1229023123         50.22635774        0.8048406931        -45.45555181
      1.830634e+010       0.7849684323        -61.99623182          4.81314152         133.7715404        0.1231111249         50.14492495        0.8040911492        -45.55225685
      1.835633e+010       0.7846408357        -62.12735194         4.808209877         133.6729073        0.1233192827         50.06364794        0.8033419364        -45.64880382
      1.840632e+010       0.7843136102        -62.25824492         4.803279986         133.5744301        0.1235267873         49.98252651        0.8025930621        -45.74519293
      1.845631e+010       0.7839867588        -62.38891094         4.798351894         133.4761087        0.1237336402         49.90156044        0.8018445333        -45.84142439
       1.85063e+010        0.783660285         -62.5193502         4.793425645         133.3779428         0.123939843         49.82074952        0.8010963571        -45.93749841
      1.855629e+010       0.7833341918        -62.64956288         4.788501285         133.2799322        0.1241453973         49.74009353        0.8003485405         -46.0334152
      1.860628e+010       0.7830084824        -62.77954919         4.783578859         133.1820767        0.1243503046         49.65959225        0.7996010903        -46.12917497
      1.865627e+010       0.7826831599        -62.90930932         4.778658411         133.0843761        0.1245545665         49.57924547        0.7988540136        -46.22477794
      1.870626e+010       0.7823582276        -63.03884347         4.773739985         132.9868302        0.1247581846         49.49905296         0.798107317        -46.32022431
      1.875625e+010       0.7820336883        -63.16815184         4.768823626         132.8894388        0.1249611604          49.4190145        0.7973610074        -46.41551431
      1.880624e+010       0.7817095451        -63.29723462         4.763909375         132.7922015        0.1251634956         49.33912988        0.7966150915        -46.51064816
      1.885623e+010        0.781385801        -63.42609204         4.758997278         132.6951183        0.1253651916         49.25939886        0.7958695759        -46.60562607
      1.890622e+010        0.781062459        -63.55472429         4.754087375         132.5981889        0.1255662501         49.17982123        0.7951244672        -46.70044825
      1.895621e+010        0.780739522        -63.68313158         4.749179709          132.501413        0.1257666727         49.10039676         0.794379772        -46.79511494
       1.90062e+010        0.780416993        -63.81131412         4.744274323         132.4047905        0.1259664609         49.02112521        0.7936354966        -46.88962635
      1.905619e+010       0.7800948746        -63.93927213         4.739371258         132.3083211        0.1261656164         48.94200638        0.7928916476         -46.9839827
      1.910618e+010       0.7797731699        -64.06700581         4.734470555         132.2120045        0.1263641407         48.86304001        0.7921482312        -47.07818422
      1.915617e+010       0.7794518816        -64.19451539         4.729572254         132.1158406        0.1265620354         48.78422589        0.7914052539        -47.17223114
      1.920616e+010       0.7791310124        -64.32180108         4.724676397         132.0198291        0.1267593021         48.70556379        0.7906627218        -47.26612367
      1.925615e+010       0.7788105652         -64.4488631         4.719783024         131.9239698        0.1269559425         48.62705346        0.7899206411        -47.35986205
      1.930614e+010       0.7784905425        -64.57570167         4.714892174         131.8282625        0.1271519581         48.54869469        0.7891790181         -47.4534465
      1.935613e+010       0.7781709471        -64.70231702         4.710003886         131.7327069        0.1273473504         48.47048723        0.7884378586        -47.54687726
      1.940612e+010       0.7778517817        -64.82870936         4.705118201         131.6373028        0.1275421212         48.39243085        0.7876971689        -47.64015454
      1.945611e+010       0.7775330488        -64.95487893         4.700235156         131.5420499         0.127736272         48.31452531        0.7869569548        -47.73327859
       1.95061e+010        0.777214751        -65.08082595          4.69535479         131.4469481        0.1279298045         48.23677038        0.7862172224        -47.82624963
      1.955609e+010       0.7768968908        -65.20655065         4.690477142          131.351997        0.1281227201         48.15916582        0.7854779774         -47.9190679
      1.960608e+010       0.7765794709        -65.33205326         4.685602248         131.2571965        0.1283150206          48.0817114        0.7847392256        -48.01173363
      1.965607e+010       0.7762624937        -65.45733402         4.680730146         131.1625463        0.1285067076         48.00440686        0.7840009729        -48.10424705
      1.970606e+010       0.7759459615        -65.58239316         4.675860874         131.0680462        0.1286977826         47.92725198        0.7832632249        -48.19660841
      1.975605e+010        0.775629877        -65.70723092         4.670994468         130.9736959        0.1288882473         47.85024651        0.7825259873        -48.28881792
      1.980604e+010       0.7753142425        -65.83184753         4.666130964         130.8794952        0.1290781032          47.7733902        0.7817892656        -48.38087584
      1.985603e+010       0.7749990603        -65.95624323         4.661270399         130.7854438        0.1292673521         47.69668282        0.7810530655        -48.47278241
      1.990602e+010       0.7746843327        -66.08041826         4.656412807         130.6915416        0.1294559954         47.62012412        0.7803173924        -48.56453785
      1.995601e+010       0.7743700622        -66.20437286         4.651558226         130.5977882        0.1296440349         47.54371386        0.7795822518         -48.6561424
        2.0006e+010        0.774056251        -66.32810728         4.646706688         130.5041834        0.1298314721         47.46745179         0.778847649        -48.74759632
      2.005599e+010       0.7737429014        -66.45162177         4.641858231          130.410727        0.1300183087         47.39133767        0.7781135895        -48.83889984
      2.010598e+010       0.7734300155        -66.57491656         4.637012887         130.3174187        0.1302045463         47.31537124        0.7773800784         -48.9300532
      2.015597e+010       0.7731175956        -66.69799191          4.63217069         130.2242583        0.1303901864         47.23955227         0.776647121        -49.02105664
      2.020596e+010       0.7728056438        -66.82084807         4.627331676         130.1312455        0.1305752308          47.1638805        0.7759147225        -49.11191041
      2.025595e+010       0.7724941623        -66.94348528         4.622495876         130.0383801         0.130759681         47.08835568        0.7751828881        -49.20261475
      2.030594e+010       0.7721831533        -67.06590379         4.617663325         129.9456618        0.1309435386         47.01297757        0.7744516228         -49.2931699
      2.035593e+010       0.7718726187        -67.18810387         4.612834054         129.8530904        0.1311268054         46.93774591        0.7737209317        -49.38357612
      2.040592e+010       0.7715625607        -67.31008577         4.608008097         129.7606657        0.1313094827         46.86266046        0.7729908197        -49.47383365
      2.045591e+010       0.7712529812        -67.43184974         4.603185486         129.6683873        0.1314915724         46.78772096        0.7722612918        -49.56394273
       2.05059e+010       0.7709438824        -67.55339603         4.598366252         129.5762551        0.1316730761         46.71292715        0.7715323528        -49.65390361
      2.055589e+010       0.7706352661        -67.67472492         4.593550427         129.4842688        0.1318539953         46.63827879        0.7708040077        -49.74371653
      2.060588e+010       0.7703271343        -67.79583665         4.588738043          129.392428        0.1320343316         46.56377562        0.7700762612        -49.83338176
      2.065587e+010        0.770019489        -67.91673149          4.58392913         129.3007327        0.1322140867         46.48941739        0.7693491179        -49.92289954
      2.070586e+010        0.769712332         -68.0374097         4.579123718         129.2091825        0.1323932622         46.41520385        0.7686225828        -50.01227011
      2.075585e+010       0.7694056652        -68.15787154         4.574321839         129.1177771        0.1325718598         46.34113473        0.7678966603        -50.10149373
      2.080584e+010       0.7690994905        -68.27811729         4.569523522         129.0265164         0.132749881         46.26720978         0.767171355        -50.19057065
      2.085583e+010       0.7687938097         -68.3981472         4.564728797            128.9354        0.1329273274         46.19342875        0.7664466716        -50.27950112
      2.090582e+010       0.7684886245        -68.51796154         4.559937693         128.8444277        0.1331042008         46.11979137        0.7657226145        -50.36828539
      2.095581e+010       0.7681839367        -68.63756059          4.55515024         128.7535992        0.1332805026          46.0462974        0.7649991882        -50.45692372
       2.10058e+010       0.7678797482         -68.7569446         4.550366466         128.6629144        0.1334562346         45.97294657        0.7642763971        -50.54541635
      2.105579e+010       0.7675760605        -68.87611386           4.5455864         128.5723728        0.1336313982         45.89973862        0.7635542455        -50.63376355
      2.110578e+010       0.7672728754        -68.99506862         4.540810071         128.4819744        0.1338059953         45.82667329        0.7628327378        -50.72196556
      2.115577e+010       0.7669701945        -69.11380918         4.536037505         128.3917187        0.1339800272         45.75375033        0.7621118782        -50.81002265
      2.120576e+010       0.7666680196        -69.23233579         4.531268731         128.3016056        0.1341534958         45.68096947         0.761391671        -50.89793506
      2.125575e+010       0.7663663521        -69.35064874         4.526503776         128.2116348        0.1343264026         45.60833046        0.7606721203        -50.98570306
      2.130574e+010       0.7660651937        -69.46874831         4.521742668         128.1218061        0.1344987491         45.53583303        0.7599532303        -51.07332689
      2.135573e+010       0.7657645461        -69.58663476         4.516985432         128.0321191        0.1346705371         45.46347692        0.7592350051        -51.16080682
      2.140572e+010       0.7654644106        -69.70430837         4.512232097         127.9425736        0.1348417681         45.39126187        0.7585174486         -51.2481431
      2.145571e+010       0.7651647888        -69.82176943         4.507482686         127.8531693        0.1350124437         45.31918762         0.757800565        -51.33533599
       2.15057e+010       0.7648656823        -69.93901822         4.502737228         127.7639061        0.1351825656          45.2472539        0.7570843581        -51.42238574
      2.155569e+010       0.7645670924        -70.05605502         4.497995747         127.6747836        0.1353521353         45.17546045        0.7563688319        -51.50929263
      2.160568e+010       0.7642690207         -70.1728801          4.49325827         127.5858015        0.1355211545         45.10380701        0.7556539903        -51.59605689
      2.165567e+010       0.7639714685        -70.28949376          4.48852482         127.4969597        0.1356896248         45.03229331         0.754939837        -51.68267881
      2.170566e+010       0.7636744374        -70.40589627         4.483795423         127.4082578        0.1358575477          44.9609191        0.7542263759        -51.76915862
      2.175565e+010       0.7633779285        -70.52208793         4.479070103         127.3196955        0.1360249249         44.88968409        0.7535136107         -51.8554966
      2.180564e+010       0.7630819434        -70.63806901         4.474348886         127.2312727         0.136191758         44.81858804         0.752801545          -51.941693
      2.185563e+010       0.7627864832        -70.75383981         4.469631794          127.142989        0.1363580485         44.74763067        0.7520901827        -52.02774808
      2.190562e+010       0.7624915495        -70.86940062         4.464918852         127.0548442        0.1365237981         44.67681172        0.7513795272        -52.11366211
      2.195561e+010       0.7621971433        -70.98475171         4.460210083          126.966838        0.1366890084         44.60613093        0.7506695821        -52.19943534
       2.20056e+010        0.761903266        -71.09989338         4.455505511         126.8789702         0.136853681         44.53558802         0.749960351        -52.28506804
      2.205559e+010       0.7616099189        -71.21482593         4.450805158         126.7912404        0.1370178174         44.46518273        0.7492518373        -52.37056047
      2.210558e+010       0.7613171031        -71.32954963         4.446109047         126.7036485        0.1371814193         44.39491479        0.7485440445        -52.45591289
      2.215557e+010       0.7610248198        -71.44406479         4.441417201         126.6161941        0.1373444883         44.32478394        0.7478369761        -52.54112556
      2.220556e+010       0.7607330703         -71.5583717         4.436729641          126.528877        0.1375070258         44.25478991        0.7471306353        -52.62619875
      2.225555e+010       0.7604418557        -71.67247065         4.432046391          126.441697        0.1376690336         44.18493243        0.7464250256        -52.71113271
      2.230554e+010       0.7601511771        -71.78636193         4.427367471         126.3546537        0.1378305132         44.11521124        0.7457201501        -52.79592772
      2.235553e+010       0.7598610356        -71.90004585         4.422692904         126.2677469        0.1379914662         44.04562606        0.7450160122        -52.88058403
      2.240552e+010       0.7595714323        -72.01352269         4.418022709         126.1809763        0.1381518942         43.97617663         0.744312615        -52.96510191
      2.245551e+010       0.7592823683        -72.12679275         4.413356909         126.0943416        0.1383117987         43.90686268        0.7436099617        -53.04948162
       2.25055e+010       0.7589938447        -72.23985634         4.408695524         126.0078427        0.1384711814         43.83768394        0.7429080555        -53.13372342
      2.255549e+010       0.7587058624        -72.35271374         4.404038574         125.9214791        0.1386300438         43.76864014        0.7422068994        -53.21782759
      2.260548e+010       0.7584184225        -72.46536526          4.39938608         125.8352507        0.1387883875         43.69973102        0.7415064964        -53.30179438
      2.265547e+010        0.758131526         -72.5778112         4.394738061         125.7491572         0.138946214          43.6309563        0.7408068497        -53.38562405
      2.270546e+010       0.7578451738        -72.69005185         4.390094538         125.6631983         0.139103525         43.56231571        0.7401079622        -53.46931689
      2.275545e+010        0.757559367        -72.80208753         4.385455529         125.5773738        0.1392603219         43.49380899        0.7394098368        -53.55287314
      2.280544e+010       0.7572741063        -72.91391852         4.380821055         125.4916833        0.1394166065         43.42543586        0.7387124764        -53.63629307
      2.285543e+010       0.7569893927        -73.02554514         4.376191134         125.4061266        0.1395723801         43.35719606        0.7380158838        -53.71957695
      2.290542e+010       0.7567052272        -73.13696768         4.371565785         125.3207035        0.1397276445         43.28908932         0.737320062        -53.80272504
      2.295541e+010       0.7564216105        -73.24818645         4.366945026         125.2354136        0.1398824011         43.22111536        0.7366250137        -53.88573762
       2.30054e+010       0.7561385436        -73.35920175         4.362328877         125.1502568        0.1400366515         43.15327391        0.7359307417        -53.96861493
      2.305539e+010       0.7558560273        -73.47001389         4.357717354         125.0652327        0.1401903973         43.08556471        0.7352372486        -54.05135726
      2.310538e+010       0.7555740623        -73.58062317         4.353110476          124.980341          0.14034364         43.01798749        0.7345445371        -54.13396486
      2.315537e+010       0.7552926495         -73.6910299          4.34850826         124.8955815        0.1404963812         42.95054197          0.73385261        -54.21643801
      2.320536e+010       0.7550117897        -73.80123439         4.343910724          124.810954        0.1406486224         42.88322788        0.7331614697        -54.29877696
      2.325535e+010       0.7547314835        -73.91123694         4.339317886         124.7264581        0.1408003652         42.81604496        0.7324711189        -54.38098199
      2.330534e+010       0.7544517318        -74.02103786         4.334729761         124.6420936         0.140951611         42.74899293        0.7317815602        -54.46305335
      2.335533e+010       0.7541725353        -74.13063745         4.330146367         124.5578602        0.1411023615         42.68207152         0.731092796        -54.54499132
      2.340532e+010       0.7538938947        -74.24003604          4.32556772         124.4737576        0.1412526182         42.61528046        0.7304048287        -54.62679617
      2.345531e+010       0.7536158106        -74.34923392         4.320993837         124.3897857        0.1414023827         42.54861949        0.7297176609        -54.70846815
       2.35053e+010       0.7533382838         -74.4582314         4.316424734          124.305944        0.1415516564         42.48208832         0.729031295        -54.79000753
      2.355529e+010       0.7530613148         -74.5670288         4.311860426         124.2222324        0.1417004408         42.41568669        0.7283457332        -54.87141459
      2.360528e+010       0.7527849043        -74.67562643         4.307300929         124.1386505        0.1418487376         42.34941433         0.727660978        -54.95268958
      2.365527e+010        0.752509053        -74.78402459         4.302746259         124.0551981        0.1419965482         42.28327097        0.7269770316        -55.03383278
      2.370526e+010       0.7522337614         -74.8922236         4.298196431          123.971875        0.1421438742         42.21725634        0.7262938963        -55.11484445
      2.375525e+010         0.75195903        -75.00022378          4.29365146         123.8886808        0.1422907171         42.15137016        0.7256115744        -55.19572485
      2.380524e+010       0.7516848596        -75.10802542         4.289111361         123.8056153        0.1424370784         42.08561216         0.724930068        -55.27647425
      2.385523e+010       0.7514112505        -75.21562886         4.284576148         123.7226782        0.1425829596         42.01998208        0.7242493793        -55.35709293
      2.390522e+010       0.7511382035        -75.32303439         4.280045835         123.6398692        0.1427283622         41.95447965        0.7235695104        -55.43758114
      2.395521e+010       0.7508657188        -75.43024234         4.275520438         123.5571882        0.1428732877         41.88910458        0.7228904635        -55.51793914
       2.40052e+010       0.7505937971        -75.53725301          4.27099997         123.4746347        0.1430177377         41.82385662        0.7222122407        -55.59816722
      2.405519e+010       0.7503224389        -75.64406673         4.266484444         123.3922086        0.1431617137         41.75873548        0.7215348439        -55.67826563
      2.410518e+010       0.7500516446         -75.7506838         4.261973875         123.3099096        0.1433052171         41.69374091        0.7208582752        -55.75823464
      2.415517e+010       0.7497814146        -75.85710454         4.257468276         123.2277373        0.1434482494         41.62887263        0.7201825365        -55.83807452
      2.420516e+010       0.7495117494        -75.96332928         4.252967659         123.1456916        0.1435908122         41.56413037        0.7195076299        -55.91778553
      2.425515e+010       0.7492426494        -76.06935831         4.248472039         123.0637721        0.1437329069         41.49951386        0.7188335571        -55.99736794
      2.430514e+010        0.748974115        -76.17519197         4.243981427         122.9819786         0.143874535         41.43502282        0.7181603202        -56.07682201
      2.435513e+010       0.7487061466        -76.28083057         4.239495837         122.9003109        0.1440156981           41.370657         0.717487921        -56.15614801
      2.440512e+010       0.7484387446        -76.38627441         4.235015281         122.8187686        0.1441563975         41.30641611        0.7168163613         -56.2353462
      2.445511e+010       0.7481719093        -76.49152383          4.23053977         122.7373515        0.1442966348         41.24229989        0.7161456429        -56.31441686
       2.45051e+010       0.7479056411        -76.59657914         4.226069318         122.6560593        0.1444364114         41.17830807        0.7154757675        -56.39336025
      2.455509e+010       0.7476399403        -76.70144066         4.221603936         122.5748917        0.1445757289         41.11444038        0.7148067369        -56.47217662
      2.460508e+010       0.7473748071         -76.8061087         4.217143636         122.4938486        0.1447145886         41.05069654        0.7141385529        -56.55086626
      2.465507e+010        0.747110242        -76.91058358         4.212688429         122.4129295        0.1448529921          40.9870763         0.713471217        -56.62942941
      2.470506e+010       0.7468462452        -77.01486563         4.208238327         122.3321343        0.1449909409         40.92357938         0.712804731        -56.70786636
      2.475505e+010        0.746582817        -77.11895516          4.20379334         122.2514626        0.1451284363         40.86020551        0.7121390965        -56.78617736
      2.480504e+010       0.7463199575        -77.22285248         4.199353479         122.1709142        0.1452654799         40.79695441        0.7114743151        -56.86436267
      2.485503e+010       0.7460576671        -77.32655793         4.194918757         122.0904889         0.145402073         40.73382584        0.7108103882        -56.94242257
      2.490502e+010        0.745795946        -77.43007182         4.190489182         122.0101864        0.1455382173          40.6708195        0.7101473176        -57.02035731
      2.495501e+010       0.7455347944        -77.53339447         4.186064765         121.9300063         0.145673914         40.60793514        0.7094851046        -57.09816717
        2.5005e+010       0.7452742125         -77.6365262         4.181645517         121.8499485        0.1458091646         40.54517249        0.7088237508         -57.1758524
      2.505499e+010       0.7450142005        -77.73946732         4.177231448         121.7700126        0.1459439707         40.48253127        0.7081632576        -57.25341327
      2.510498e+010       0.7447547585        -77.84221817         4.172822568         121.6901985        0.1460783336         40.42001123        0.7075036265        -57.33085005
      2.515497e+010       0.7444958867        -77.94477907         4.168418886         121.6105058        0.1462122547         40.35761208        0.7068448588        -57.40816299
      2.520496e+010       0.7442375853        -78.04715032         4.164020412         121.5309342        0.1463457355         40.29533358         0.706186956        -57.48535236
      2.525495e+010       0.7439798544        -78.14933226         4.159627155         121.4514835        0.1464787775         40.23317543        0.7055299194        -57.56241843
      2.530494e+010       0.7437226941         -78.2513252         4.155239125         121.3721535         0.146611382         40.17113739        0.7048737502        -57.63936145
      2.535493e+010       0.7434661045        -78.35312948          4.15085633         121.2929438        0.1467435505         40.10921918        0.7042184499         -57.7161817
      2.540492e+010       0.7432100857         -78.4547454          4.14647878         121.2138543        0.1468752844         40.04742053        0.7035640197        -57.79287942
      2.545491e+010       0.7429546379        -78.55617329         4.142106483         121.1348845        0.1470065851         39.98574118        0.7029104607         -57.8694549
       2.55049e+010        0.742699761        -78.65741347         4.137739447         121.0560344         0.147137454         39.92418086        0.7022577744        -57.94590838
      2.555489e+010       0.7424454551        -78.75846627         4.133377682         120.9773035        0.1472678926         39.86273931        0.7016059618        -58.02224013
      2.560488e+010       0.7421917202          -78.859332         4.129021196         120.8986917        0.1473979022         39.80141626         0.700955024        -58.09845042
      2.565487e+010       0.7419385565          -78.960011         4.124669995         120.8201986        0.1475274842         39.74021144        0.7003049624         -58.1745395
      2.570486e+010       0.7416859639        -79.06050357          4.12032409          120.741824        0.1476566401         39.67912458        0.6996557779        -58.25050763
      2.575485e+010       0.7414339425        -79.16081006         4.115983486         120.6635677        0.1477853712         39.61815543        0.6990074718        -58.32635508
      2.580484e+010       0.7411824921        -79.26093076         4.111648193         120.5854294        0.1479136789         39.55730371        0.6983600449        -58.40208211
      2.585483e+010       0.7409316129        -79.36086602         4.107318216         120.5074088        0.1480415647         39.49656917        0.6977134985        -58.47768898
      2.590482e+010       0.7406813047        -79.46061615         4.102993565         120.4295056        0.1481690299         39.43595153        0.6970678335        -58.55317595
      2.595481e+010       0.7404315676        -79.56018148         4.098674245         120.3517196        0.1482960758         39.37545054        0.6964230509        -58.62854328
       2.60048e+010       0.7401824015        -79.65956232         4.094360264         120.2740506         0.148422704         39.31506592        0.6957791518        -58.70379123
      2.605479e+010       0.7399338063          -79.758759         4.090051628         120.1964982        0.1485489156         39.25479742         0.695136137        -58.77892005
      2.610478e+010        0.739685782        -79.85777185         4.085748345         120.1190622        0.1486747122         39.19464477        0.6944940075        -58.85393002
      2.615477e+010       0.7394383285        -79.95660119         4.081450421         120.0417424        0.1488000951         39.13460771        0.6938527642        -58.92882138
      2.620476e+010       0.7391914457        -80.05524734         4.077157863         119.9645384        0.1489250656         39.07468597         0.693212408        -59.00359441
      2.625475e+010       0.7389451334        -80.15371062         4.072870676           119.88745        0.1490496251         39.01487929        0.6925729397        -59.07824934
      2.630474e+010       0.7386993916        -80.25199136         4.068588866          119.810477         0.149173775         38.95518741        0.6919343602        -59.15278646
      2.635473e+010       0.7384542202        -80.35008989         4.064312441         119.7336191        0.1492975167         38.89561007        0.6912966704          -59.227206
      2.640472e+010        0.738209619        -80.44800651         4.060041405          119.656876        0.1494208513           38.836147        0.6906598709        -59.30150824
      2.645471e+010       0.7379655878        -80.54574156         4.055775765         119.5802474        0.1495437805         38.77679795        0.6900239627        -59.37569342
       2.65047e+010       0.7377221266        -80.64329537         4.051515526         119.5037332        0.1496663053         38.71756265        0.6893889463        -59.44976181
      2.655469e+010        0.737479235        -80.74066824         4.047260693          119.427333        0.1497884273         38.65844084        0.6887548227        -59.52371367
      2.660468e+010       0.7372369131        -80.83786052         4.043011271         119.3510467        0.1499101477         38.59943226        0.6881215924        -59.59754924
      2.665467e+010       0.7369951605        -80.93487251         4.038767267         119.2748738        0.1500314679         38.54053665        0.6874892562        -59.67126878
      2.670466e+010       0.7367539771        -81.03170455         4.034528685         119.1988142        0.1501523892         38.48175374        0.6868578148        -59.74487256
      2.675465e+010       0.7365133627        -81.12835695         4.030295529         119.1228676         0.150272913         38.42308329        0.6862272687        -59.81836083
      2.680464e+010        0.736273317        -81.22483005         4.026067805         119.0470338        0.1503930405         38.36452503        0.6855976186        -59.89173384
      2.685463e+010       0.7360338398        -81.32112416         4.021845517         118.9713125         0.150512773          38.3060787        0.6849688652        -59.96499185
      2.690462e+010        0.735794931         -81.4172396          4.01762867         118.8957034         0.150632112         38.24774404         0.684341009        -60.03813511
      2.695461e+010       0.7355565902        -81.51317671         4.013417268         118.8202063        0.1507510586          38.1895208        0.6837140506        -60.11116388
       2.70046e+010       0.7353188172        -81.60893579         4.009211316         118.7448209        0.1508696143         38.13140871        0.6830879904        -60.18407841
      2.705459e+010       0.7350816117        -81.70451719         4.005010817         118.6695469        0.1509877803         38.07340752        0.6824628292        -60.25687895
      2.710458e+010       0.7348449735        -81.79992121         4.000815775         118.5943842        0.1511055579         38.01551697        0.6818385673        -60.32956577
      2.715457e+010       0.7346089023        -81.89514818         3.996626195         118.5193325        0.1512229484         37.95773681        0.6812152052         -60.4021391
      2.720456e+010       0.7343733978        -81.99019842         3.992442081         118.4443914        0.1513399531         37.90006677        0.6805927435        -60.47459921
      2.725455e+010       0.7341384596        -82.08507226         3.988263434         118.3695608        0.1514565733          37.8425066        0.6799711825        -60.54694635
      2.730454e+010       0.7339040876        -82.17977002         3.984090261         118.2948403        0.1515728103         37.78505604        0.6793505227        -60.61918077
      2.735453e+010       0.7336702813        -82.27429202         3.979922563         118.2202298        0.1516886653         37.72771485        0.6787307646        -60.69130272
      2.740452e+010       0.7334370405        -82.36863859         3.975760344          118.145729        0.1518041398         37.67048276        0.6781119084        -60.76331246
      2.745451e+010       0.7332043648        -82.46281004         3.971603607         118.0713376        0.1519192348         37.61335951        0.6774939547        -60.83521022
       2.75045e+010       0.7329722538         -82.5568067         3.967452355         117.9970553        0.1520339517         37.55634486        0.6768769036        -60.90699628
      2.755449e+010       0.7327407073        -82.65062889         3.963306592          117.922882        0.1521482918         37.49943855        0.6762607557        -60.97867086
      2.760448e+010       0.7325097248        -82.74427693         3.959166319         117.8488173        0.1522622563         37.44264033        0.6756455111        -61.05023424
      2.765447e+010       0.7322793061        -82.83775114         3.955031541         117.7748611        0.1523758465         37.38594993        0.6750311703        -61.12168664
      2.770446e+010       0.7320494506        -82.93105185         3.950902258          117.701013        0.1524890637         37.32936712        0.6744177334        -61.19302833
      2.775445e+010       0.7318201581        -83.02417937         3.946778474         117.6272728        0.1526019091         37.27289163        0.6738052008        -61.26425956
      2.780444e+010       0.7315914282        -83.11713404         3.942660191         117.5536403        0.1527143839         37.21652322        0.6731935727        -61.33538056
      2.785443e+010       0.7313632604        -83.20991616         3.938547411         117.4801152        0.1528264894         37.16026163        0.6725828494         -61.4063916
      2.790442e+010       0.7311356544        -83.30252606         3.934440137         117.4066972        0.1529382269         37.10410661         0.671973031        -61.47729291
      2.795441e+010       0.7309086097        -83.39496407          3.93033837         117.3333862        0.1530495975         37.04805791        0.6713641178        -61.54808475
       2.80044e+010        0.730682126        -83.48723049         3.926242113         117.2601818        0.1531606026         36.99211528        0.6707561099        -61.61876736
      2.805439e+010       0.7304562027        -83.57932566         3.922151367         117.1870838        0.1532712433         36.93627846        0.6701490075        -61.68934098
      2.810438e+010       0.7302308396        -83.67124989         3.918066134         117.1140919        0.1533815209         36.88054722        0.6695428108        -61.75980588
      2.815437e+010        0.730006036         -83.7630035         3.913986416          117.041206        0.1534914366         36.82492129        0.6689375199        -61.83016228
      2.820436e+010       0.7297817916        -83.85458682         3.909912213         116.9684257        0.1536009916         36.76940044        0.6683331349        -61.90041044
      2.825435e+010       0.7295581059        -83.94600016         3.905843528         116.8957508        0.1537101872          36.7139844         0.667729656         -61.9705506
      2.830434e+010       0.7293349785        -84.03724384         3.901780362         116.8231811        0.1538190245         36.65867293        0.6671270831          -62.040583
      2.835433e+010       0.7291124089        -84.12831819         3.897722716         116.7507164        0.1539275048         36.60346579        0.6665254164        -62.11050789
      2.840432e+010       0.7288903966        -84.21922351          3.89367059         116.6783562        0.1540356293         36.54836273        0.6659246559        -62.18032552
      2.845431e+010       0.7286689411        -84.30996014         3.889623987         116.6061006        0.1541433992          36.4933635        0.6653248017        -62.25003613
       2.85043e+010       0.7284480419        -84.40052839         3.885582907          116.533949        0.1542508156         36.43846785        0.6647258539        -62.31963995
      2.855429e+010       0.7282276986        -84.49092857         3.881547351         116.4619015        0.1543578798         36.38367553        0.6641278123        -62.38913724
      2.860428e+010       0.7280079107        -84.58116101         3.877517319         116.3899576         0.154464593         36.32898631         0.663530677        -62.45852824
      2.865427e+010       0.7277886776        -84.67122602         3.873492813         116.3181171        0.1545709564         36.27439993         0.662934448        -62.52781318
      2.870426e+010       0.7275699988        -84.76112393         3.869473832         116.2463799        0.1546769711         36.21991616        0.6623391252        -62.59699231
      2.875425e+010       0.7273518737        -84.85085505         3.865460377         116.1747456        0.1547826383         36.16553473        0.6617447086        -62.66606586
      2.880424e+010        0.727134302        -84.94041969         3.861452449          116.103214        0.1548879592         36.11125542        0.6611511982        -62.73503409
      2.885423e+010        0.726917283        -85.02981818         3.857450047         116.0317849         0.154992935         36.05707798        0.6605585938        -62.80389723
      2.890422e+010       0.7267008162        -85.11905084         3.853453172         115.9604581        0.1550975669         36.00300216        0.6599668954        -62.87265552
      2.895421e+010       0.7264849011        -85.20811797         3.849461824         115.8892332         0.155201856         35.94902772        0.6593761029        -62.94130919
       2.90042e+010        0.726269537         -85.2970199         3.845476003           115.81811        0.1553058034         35.89515443        0.6587862161         -63.0098585
      2.905419e+010       0.7260547235        -85.38575694         3.841495708         115.7470884        0.1554094104         35.84138202        0.6581972348        -63.07830367
      2.910418e+010         0.72584046        -85.47432941          3.83752094          115.676168        0.1555126781         35.78771028        0.6576091591        -63.14664494
      2.915417e+010       0.7256267459        -85.56273762         3.833551699         115.6053487        0.1556156076         35.73413894        0.6570219886        -63.21488256
      2.920416e+010       0.7254135807        -85.65098189         3.829587983         115.5346301        0.1557182001         35.68066778        0.6564357233        -63.28301676
      2.925415e+010       0.7252009637        -85.73906254         3.825629793         115.4640121        0.1558204568         35.62729656        0.6558503629        -63.35104777
      2.930414e+010       0.7249888943        -85.82697988         3.821677128         115.3934943        0.1559223788         35.57402503        0.6552659072        -63.41897583
      2.935413e+010       0.7247773721        -85.91473422         3.817729986         115.3230767        0.1560239671         35.52085295         0.654682356        -63.48680119
      2.940412e+010       0.7245663964        -86.00232589         3.813788369         115.2527589        0.1561252231         35.46778008        0.6540997092        -63.55452406
      2.945411e+010       0.7243559665        -86.08975518         3.809852274         115.1825406        0.1562261477         35.41480619        0.6535179664         -63.6221447
       2.95041e+010        0.724146082        -86.17702243         3.805921701         115.1124217        0.1563267421         35.36193104        0.6529371273        -63.68966332
      2.955409e+010       0.7239367421        -86.26412793         3.801996649          115.042402        0.1564270075         35.30915439        0.6523571919        -63.75708018
      2.960408e+010       0.7237279462        -86.35107201         3.798077117         114.9724811         0.156526945           35.256476        0.6517781597         -63.8243955
      2.965407e+010       0.7235196938        -86.43785498         3.794163104         114.9026589        0.1566265556         35.20389564        0.6512000304        -63.89160951
      2.970406e+010       0.7233119843        -86.52447715         3.790254608          114.832935        0.1567258405         35.15141307        0.6506228039        -63.95872244
      2.975405e+010       0.7231048169        -86.61093883         3.786351628         114.7633094        0.1568248008         35.09902806        0.6500464797        -64.02573454
      2.980404e+010        0.722898191        -86.69724034         3.782454164         114.6937817        0.1569234377         35.04674036        0.6494710575        -64.09264603
      2.985403e+010        0.722692106        -86.78338199         3.778562213         114.6243517        0.1570217521         34.99454975         0.648896537        -64.15945714
      2.990402e+010       0.7224865614        -86.86936408         3.774675774         114.5550191        0.1571197453         34.94245599        0.6483229179         -64.2261681
      2.995401e+010       0.7222815563        -86.95518694         3.770794846         114.4857838        0.1572174182         34.89045884        0.6477501998        -64.29277915
        3.0004e+010       0.7220770902        -87.04085086         3.766919426         114.4166455        0.1573147721         34.83855808        0.6471783823        -64.35929051
      3.005399e+010       0.7218731624        -87.12635617         3.763049514          114.347604        0.1574118079         34.78675346         0.646607465        -64.42570242
      3.010398e+010       0.7216697722        -87.21170317         3.759185107         114.2786591        0.1575085268         34.73504476        0.6460374475         -64.4920151
      3.015397e+010        0.721466919        -87.29689218         3.755326203         114.2098104        0.1576049299         34.68343175        0.6454683296        -64.55822878
      3.020396e+010       0.7212646021        -87.38192349         3.751472801         114.1410579        0.1577010182         34.63191419        0.6449001106        -64.62434369
      3.025395e+010       0.7210628208        -87.46679743         3.747624899         114.0724011        0.1577967928         34.58049185        0.6443327902        -64.69036006
      3.030394e+010       0.7208615745         -87.5515143         3.743782494           114.00384        0.1578922548          34.5291645         0.643766368        -64.75627811
      3.035393e+010       0.7206608624         -87.6360744         3.739945584         113.9353743        0.1579874052         34.47793191        0.6432008435        -64.82209808
      3.040392e+010       0.7204606839        -87.72047806         3.736114167         113.8670038        0.1580822451         34.42679385        0.6426362163        -64.88782019
      3.045391e+010       0.7202610383        -87.80472557         3.732288241         113.7987282        0.1581767756          34.3757501        0.6420724858        -64.95344466
       3.05039e+010       0.7200619249        -87.88881724         3.728467804         113.7305473        0.1582709977         34.32480041        0.6415096517        -65.01897172
      3.055389e+010       0.7198633429        -87.97275339         3.724652853         113.6624609        0.1583649125         34.27394457        0.6409477133         -65.0844016
      3.060388e+010       0.7196652918        -88.05653431         3.720843385         113.5944687         0.158458521         34.22318235        0.6403866703        -65.14973451
      3.065387e+010       0.7194677707        -88.14016032         3.717039399         113.5265706        0.1585518243         34.17251351        0.6398265221         -65.2149707
      3.070386e+010        0.719270779        -88.22363172         3.713240891         113.4587663        0.1586448234         34.12193784        0.6392672682        -65.28011037
      3.075385e+010        0.719074316        -88.30694882         3.709447859         113.3910555        0.1587375194          34.0714551         0.638708908        -65.34515375
      3.080384e+010       0.7188783809        -88.39011192         3.705660299         113.3234381        0.1588299132         34.02106507        0.6381514411        -65.41010106
      3.085383e+010        0.718682973        -88.47312133          3.70187821         113.2559138         0.158922006         33.97076752        0.6375948668        -65.47495253
      3.090382e+010       0.7184880916        -88.55597735         3.698101589         113.1884824        0.1590137988         33.92056223        0.6370391847        -65.53970838
      3.095381e+010       0.7182937359        -88.63868029         3.694330432         113.1211437        0.1591052925         33.87044898        0.6364843941        -65.60436883
       3.10038e+010       0.7180999053        -88.72123045         3.690564736         113.0538975        0.1591964882         33.82042753        0.6359304944         -65.6689341
      3.105379e+010        0.717906599        -88.80362814           3.6868045         112.9867435        0.1592873869         33.77049768        0.6353774852        -65.73340441
      3.110378e+010       0.7177138163        -88.88587366         3.683049718         112.9196815        0.1593779897         33.72065918        0.6348253658        -65.79777998
      3.115377e+010       0.7175215564        -88.96796731         3.679300389         112.8527112        0.1594682976         33.67091182        0.6342741355        -65.86206103
      3.120376e+010       0.7173298185        -89.04990939         3.675556509         112.7858326        0.1595583115         33.62125538        0.6337237938        -65.92624778
      3.125375e+010        0.717138602        -89.13170021         3.671818074         112.7190453        0.1596480324         33.57168964        0.6331743401        -65.99034045
      3.130374e+010        0.716947906        -89.21334008         3.668085082         112.6523491        0.1597374614         33.52221437        0.6326257737        -66.05433925
      3.135373e+010       0.7167577299        -89.29482928         3.664357529         112.5857438        0.1598265995         33.47282936         0.632078094        -66.11824441
      3.140372e+010       0.7165680728        -89.37616813         3.660635412         112.5192292        0.1599154476         33.42353438        0.6315313004        -66.18205614
      3.145371e+010       0.7163789341        -89.45735691         3.656918727         112.4528051        0.1600040068         33.37432921        0.6309853921        -66.24577465
       3.15037e+010       0.7161903129        -89.53839595         3.653207471         112.3864712        0.1600922781         33.32521364        0.6304403685        -66.30940017
      3.155369e+010       0.7160022085        -89.61928552         3.649501639         112.3202274        0.1601802623         33.27618744         0.629896229        -66.37293291
      3.160368e+010         0.71581462        -89.70002594         3.645801229         112.2540734        0.1602679606          33.2272504        0.6293529729        -66.43637309
      3.165367e+010       0.7156275469        -89.78061751         3.642106237         112.1880089        0.1603553738          33.1784023        0.6288105995        -66.49972091
      3.170366e+010       0.7154409882        -89.86106051         3.638416658         112.1220339         0.160442503         33.12964292         0.628269108         -66.5629766
      3.175365e+010       0.7152549432        -89.94135526          3.63473249          112.056148        0.1605293491         33.08097204        0.6277284978        -66.62614036
      3.180364e+010       0.7150694111        -90.02150204         3.631053728         111.9903511        0.1606159132         33.03238945        0.6271887682        -66.68921242
      3.185363e+010       0.7148843911        -90.10150116         3.627380368         111.9246429        0.1607021961         32.98389494        0.6266499185        -66.75219298
      3.190362e+010       0.7146998825        -90.18135292         3.623712407         111.8590232        0.1607881988         32.93548828        0.6261119478        -66.81508225
      3.195361e+010       0.7145158845         -90.2610576          3.62004984         111.7934918        0.1608739223         32.88716926        0.6255748556        -66.87788046
       3.20036e+010       0.7143323962        -90.34061551         3.616392664         111.7280485        0.1609593675         32.83893767         0.625038641         -66.9405878
      3.205359e+010        0.714149417        -90.42002695         3.612740873         111.6626931        0.1610445355         32.79079329        0.6245033033         -67.0032045
      3.210358e+010       0.7139669459         -90.4992922         3.609094465         111.5974254         0.161129427         32.74273592        0.6239688418        -67.06573075
      3.215357e+010       0.7137849822        -90.57841157         3.605453435         111.5322451        0.1612140432         32.69476532        0.6234352556        -67.12816678
      3.220356e+010       0.7136035252        -90.65738535         3.601817778          111.467152        0.1612983849         32.64688131        0.6229025441        -67.19051279
      3.225355e+010       0.7134225739        -90.73621383         3.598187491          111.402146         0.161382453         32.59908365        0.6223707064        -67.25276899
      3.230354e+010       0.7132421277        -90.81489731         3.594562569         111.3372268        0.1614662486         32.55137214        0.6218397417        -67.31493558
      3.235353e+010       0.7130621856        -90.89343608         3.590943008         111.2723942        0.1615497725         32.50374658        0.6213096493        -67.37701279
      3.240352e+010       0.7128827469        -90.97183044         3.587328802         111.2076481        0.1616330256         32.45620674        0.6207804283        -67.43900081
      3.245351e+010       0.7127038109        -91.05008067         3.583719949         111.1429881        0.1617160089         32.40875241         0.620252078        -67.50089985
       3.25035e+010       0.7125253766        -91.12818707         3.580116443         111.0784141        0.1617987234          32.3613834        0.6197245976        -67.56271012
      3.255349e+010       0.7123474432        -91.20614994          3.57651828         111.0139258        0.1618811699         32.31409949        0.6191979862        -67.62443182
      3.260348e+010       0.7121700101        -91.28396956         3.572925454         110.9495232        0.1619633493         32.26690046        0.6186722429        -67.68606516
      3.265347e+010       0.7119930762        -91.36164622         3.569337963         110.8852058        0.1620452626         32.21978612        0.6181473671        -67.74761035
      3.270346e+010       0.7118166409        -91.43918022           3.5657558         110.8209737        0.1621269106         32.17275625        0.6176233578        -67.80906759
      3.275345e+010       0.7116407033        -91.51657185         3.562178961         110.7568265        0.1622082943         32.12581065        0.6171002141        -67.87043709
      3.280344e+010       0.7114652625        -91.59382139         3.558607442          110.692764        0.1622894146         32.07894911        0.6165779353        -67.93171904
      3.285343e+010       0.7112903179        -91.67092914         3.555041237         110.6287861        0.1623702724         32.03217142        0.6160565205        -67.99291366
      3.290342e+010       0.7111158684        -91.74789538         3.551480342         110.5648925        0.1624508686         31.98547738        0.6155359688        -68.05402114
      3.295341e+010       0.7109419134         -91.8247204         3.547924752          110.501083         0.162531204         31.93886678        0.6150162794        -68.11504169
       3.30034e+010        0.710768452         -91.9014045         3.544374462         110.4373574        0.1626112796         31.89233942        0.6144974514        -68.17597551
      3.305339e+010       0.7105954833        -91.97794795         3.540829466         110.3737156        0.1626910962          31.8458951        0.6139794838         -68.2368228
      3.310338e+010       0.7104230065        -92.05435105         3.537289761         110.3101572        0.1627706548          31.7995336        0.6134623759        -68.29758376
      3.315337e+010       0.7102510208        -92.13061408         3.533755341         110.2466822        0.1628499562         31.75325473        0.6129461267        -68.35825859
      3.320336e+010       0.7100795254        -92.20673734         3.530226201         110.1832903        0.1629290013         31.70705828        0.6124307354         -68.4188475
      3.325335e+010       0.7099085195        -92.28272109         3.526702335         110.1199813        0.1630077909         31.66094405         0.611916201        -68.47935068
      3.330334e+010       0.7097380021        -92.35856564          3.52318374          110.056755         0.163086326         31.61491185        0.6114025226        -68.53976833
      3.335333e+010       0.7095679724        -92.43427127         3.519670408         109.9936113        0.1631646074         31.56896145        0.6108896993        -68.60010065
      3.340332e+010       0.7093984297        -92.50983825         3.516162336         109.9305498         0.163242636         31.52309268        0.6103777303        -68.66034784
      3.345331e+010       0.7092293731        -92.58526689         3.512659519         109.8675704        0.1633204126         31.47730532        0.6098666145        -68.72051009
       3.35033e+010       0.7090608017        -92.66055745          3.50916195          109.804673        0.1633979381         31.43159918         0.609356351        -68.78058761
      3.355329e+010       0.7088927147        -92.73571022         3.505669624         109.7418572        0.1634752134         31.38597405         0.608846939        -68.84058059
      3.360328e+010       0.7087251112        -92.81072549         3.502182537          109.679123        0.1635522393         31.34042974        0.6083383775        -68.90048923
      3.365327e+010       0.7085579905        -92.88560353         3.498700683         109.6164701        0.1636290166         31.29496604        0.6078306655        -68.96031371
      3.370326e+010       0.7083913516        -92.96034464         3.495224055         109.5538983        0.1637055463         31.24958277         0.607323802        -69.02005425
      3.375325e+010       0.7082251937        -93.03494908          3.49175265         109.4914074        0.1637818291         31.20427972        0.6068177863        -69.07971102
      3.380324e+010        0.708059516        -93.10941715         3.488286462         109.4289973        0.1638578659          31.1590567        0.6063126172        -69.13928423
      3.385323e+010       0.7078943176        -93.18374912         3.484825484         109.3666676        0.1639336575          31.1139135        0.6058082938        -69.19877408
      3.390322e+010       0.7077295977        -93.25794528         3.481369712         109.3044184        0.1640092048         31.06884994        0.6053048151        -69.25818075
      3.395321e+010       0.7075653554         -93.3320059          3.47791914         109.2422492        0.1640845086         31.02386581        0.6048021803        -69.31750443
       3.40032e+010       0.7074015899        -93.40593126         3.474473762           109.18016        0.1641595697         30.97896093        0.6043003883        -69.37674532
      3.405319e+010       0.7072383003        -93.47972164         3.471033573         109.1181506         0.164234389         30.93413509        0.6037994381        -69.43590362
      3.410318e+010       0.7070754857        -93.55337732         3.467598567         109.0562207        0.1643089673         30.88938811        0.6032993287        -69.49497951
      3.415317e+010       0.7069131454        -93.62689858         3.464168739         108.9943701        0.1643833053         30.84471978        0.6028000592        -69.55397318
      3.420316e+010       0.7067512784        -93.70028569         3.460744082         108.9325988         0.164457404         30.80012992        0.6023016285        -69.61288483
      3.425315e+010        0.706589884        -93.77353894         3.457324591         108.8709064        0.1645312641         30.75561833        0.6018040358        -69.67171464
      3.430314e+010       0.7064289611         -93.8466586          3.45391026         108.8092928        0.1646048865         30.71118483        0.6013072798        -69.73046281
      3.435313e+010       0.7062685091        -93.91964494         3.450501084         108.7477578        0.1646782719         30.66682921        0.6008113598        -69.78912952
      3.440312e+010        0.706108527        -93.99249824         3.447097056         108.6863012        0.1647514212         30.62255128        0.6003162746        -69.84771497
      3.445311e+010       0.7059490139        -94.06521877         3.443698172         108.6249229        0.1648243352         30.57835087        0.5998220232        -69.90621933
       3.45031e+010       0.7057899691        -94.13780682         3.440304424         108.5636225        0.1648970146         30.53422777        0.5993286047        -69.96464281
      3.455309e+010       0.7056313916        -94.21026265         3.436915807            108.5024        0.1649694603         30.49018179         0.598836018        -70.02298558
      3.460308e+010       0.7054732807        -94.28258655         3.433532315         108.4412552         0.165041673         30.44621276         0.598344262        -70.08124783
      3.465307e+010       0.7053156353        -94.35477877         3.430153943         108.3801878        0.1651136536         30.40232046        0.5978533358        -70.13942976
      3.470306e+010       0.7051584548         -94.4268396         3.426780683         108.3191977        0.1651854029         30.35850473        0.5973632384        -70.19753154
      3.475305e+010       0.7050017381         -94.4987693         3.423412531         108.2582847        0.1652569215         30.31476537        0.5968739686        -70.25555336
      3.480304e+010       0.7048454845        -94.57056816          3.42004948         108.1974485        0.1653282104         30.27110219        0.5963855254        -70.31349541
      3.485303e+010       0.7046896931        -94.64223644         3.416691525         108.1366891        0.1653992703           30.227515        0.5958979079        -70.37135786
      3.490302e+010        0.704534363        -94.71377441         3.413338658         108.0760063        0.1654701019         30.18400363        0.5954111149        -70.42914092
      3.495301e+010       0.7043794934        -94.78518234         3.409990874         108.0153997         0.165540706         30.14056788        0.5949251454        -70.48684475
        3.5003e+010       0.7042250834         -94.8564605         3.406648168         107.9548694        0.1656110835         30.09720756        0.5944399984        -70.54446954
      3.505299e+010       0.7040711321        -94.92760917         3.403310532          107.894415        0.1656812351          30.0539225        0.5939556728        -70.60201548
      3.510298e+010       0.7039176387        -94.99862861         3.399977961         107.8340363        0.1657511615          30.0107125        0.5934721675        -70.65948274
      3.515297e+010       0.7037646022        -95.06951909         3.396650448         107.7737334        0.1658208635         29.96757738        0.5929894815        -70.71687152
      3.520296e+010        0.703612022        -95.14028088         3.393327988         107.7135058        0.1658903419         29.92451697        0.5925076138        -70.77418198
      3.525295e+010        0.703459897        -95.21091424         3.390010574         107.6533534        0.1659595974         29.88153107        0.5920265632        -70.83141431
      3.530294e+010       0.7033082264        -95.28141945           3.3866982         107.5932762        0.1660286309          29.8386195        0.5915463286         -70.8885687
      3.535293e+010       0.7031570094        -95.35179677         3.383390859         107.5332738        0.1660974429         29.79578208        0.5910669091        -70.94564531
      3.540292e+010       0.7030062451        -95.42204647         3.380088546         107.4733461        0.1661660344         29.75301863        0.5905883034        -71.00264434
      3.545291e+010       0.7028559325        -95.49216881         3.376791253         107.4134929        0.1662344059         29.71032897        0.5901105107        -71.05956596
       3.55029e+010        0.702706071        -95.56216406         3.373498976         107.3537141        0.1663025584         29.66771291        0.5896335297        -71.11641034
      3.555289e+010       0.7025566595        -95.63203248         3.370211707         107.2940094        0.1663704925         29.62517027        0.5891573593        -71.17317767
      3.560288e+010       0.7024076972        -95.70177434          3.36692944         107.2343787        0.1664382089         29.58270088        0.5886819986        -71.22986813
      3.565287e+010       0.7022591833        -95.77138991         3.363652168         107.1748218        0.1665057085         29.54030456        0.5882074463        -71.28648189
      3.570286e+010       0.7021111169        -95.84087943         3.360379886         107.1153385        0.1665729919         29.49798112        0.5877337015        -71.34301913
      3.575285e+010       0.7019634971        -95.91024319         3.357112587         107.0559286        0.1666400598         29.45573039        0.5872607629        -71.39948002
      3.580284e+010       0.7018163231        -95.97948144         3.353850265         106.9965921         0.166706913         29.41355219        0.5867886296        -71.45586474
      3.585283e+010       0.7016695939        -96.04859445         3.350592912         106.9373286        0.1667735523         29.37144633        0.5863173004        -71.51217347
      3.590282e+010       0.7015233088        -96.11758247         3.347340523          106.878138        0.1668399783         29.32941265        0.5858467742        -71.56840638
      3.595281e+010       0.7013774668        -96.18644576         3.344093091         106.8190202        0.1669061917         29.28745097        0.5853770499        -71.62456364
       3.60028e+010       0.7012320672         -96.2551846          3.34085061         106.7599749        0.1669721933         29.24556111        0.5849081263        -71.68064544
      3.605279e+010       0.7010871089        -96.32379923         3.337613073          106.701002        0.1670379838         29.20374289        0.5844400025        -71.73665194
      3.610278e+010       0.7009425913        -96.39228992         3.334380474         106.6421013         0.167103564         29.16199614        0.5839726772        -71.79258331
      3.615277e+010       0.7007985133        -96.46065692         3.331152806         106.5832727        0.1671689344         29.12032068        0.5835061494        -71.84843974
      3.620276e+010       0.7006548741         -96.5289005         3.327930062         106.5245159        0.1672340959         29.07871634        0.5830404179        -71.90422139
      3.625275e+010        0.700511673        -96.59702092         3.324712237         106.4658308         0.167299049         29.03718295        0.5825754816        -71.95992843
      3.630274e+010       0.7003689089        -96.66501843         3.321499322         106.4072172        0.1673637946         28.99572032        0.5821113394        -72.01556103
      3.635273e+010       0.7002265811        -96.73289329         3.318291313          106.348675        0.1674283334          28.9543283        0.5816479902        -72.07111937
      3.640272e+010       0.7000846886        -96.80064575         3.315088202         106.2902039         0.167492666         28.91300669        0.5811854328        -72.12660362
      3.645271e+010       0.6999432307        -96.86827608         3.311889982         106.2318039         0.167556793         28.87175534        0.5807236661        -72.18201395
       3.65027e+010       0.6998022064        -96.93578453         3.308696648         106.1734747        0.1676207153         28.83057408        0.5802626891        -72.23735052
      3.655269e+010       0.6996616148        -97.00317135         3.305508191         106.1152161        0.1676844335         28.78946272        0.5798025004         -72.2926135
      3.660268e+010       0.6995214552         -97.0704368         3.302324607          106.057028        0.1677479483         28.74842109        0.5793430991        -72.34780307
      3.665267e+010       0.6993817267        -97.13758113         3.299145887         105.9989103        0.1678112604         28.70744904         0.578884484         -72.4029194
      3.670266e+010       0.6992424283        -97.20460461         3.295972026         105.9408627        0.1678743704         28.66654638        0.5784266539        -72.45796264
      3.675265e+010       0.6991035593        -97.27150748         3.292803016         105.8828851         0.167937279         28.62571295        0.5779696077        -72.51293297
      3.680264e+010       0.6989651188        -97.33828999         3.289638851         105.8249773        0.1679999869         28.58494858        0.5775133443        -72.56783056
      3.685263e+010       0.6988271059         -97.4049524         3.286479524         105.7671391        0.1680624949         28.54425309        0.5770578625        -72.62265557
      3.690262e+010       0.6986895197        -97.47149496         3.283325029         105.7093705        0.1681248035         28.50362633        0.5766031612        -72.67740816
      3.695261e+010       0.6985523594        -97.53791792         3.280175359         105.6516711        0.1681869134         28.46306812        0.5761492393        -72.73208851
       3.70026e+010       0.6984156241        -97.60422154         3.277030506         105.5940409        0.1682488253          28.4225783        0.5756960955        -72.78669678
      3.705259e+010        0.698279313        -97.67040606         3.273890465         105.5364796        0.1683105398         28.38215669        0.5752437288        -72.84123313
      3.710258e+010       0.6981434252        -97.73647173         3.270755228         105.4789872        0.1683720577         28.34180314        0.5747921379        -72.89569773
      3.715257e+010       0.6980079599        -97.80241881         3.267624788         105.4215634        0.1684333795         28.30151747        0.5743413218        -72.95009074
      3.720256e+010       0.6978729162        -97.86824754          3.26449914         105.3642081         0.168494506         28.26129953        0.5738912793        -73.00441233
      3.725255e+010       0.6977382932        -97.93395818         3.261378275         105.3069212        0.1685554378         28.22114914        0.5734420092        -73.05866266
      3.730254e+010         0.69760409        -97.99955097         3.258262188         105.2497024        0.1686161755         28.18106614        0.5729935104        -73.11284188
      3.735253e+010       0.6974703059        -98.06502616         3.255150871         105.1925515        0.1686767198         28.14105036        0.5725457817        -73.16695017
      3.740252e+010         0.69733694        -98.13038399         3.252044317         105.1354685        0.1687370713         28.10110165        0.5720988219        -73.22098769
      3.745251e+010       0.6972039914        -98.19562472         3.248942521         105.0784532        0.1687972307         28.06121983          0.57165263        -73.27495459
       3.75025e+010       0.6970714592        -98.26074858         3.245845474         105.0215054        0.1688571986         28.02140475        0.5712072047        -73.32885104
      3.755249e+010       0.6969393426        -98.32575584          3.24275317         104.9646249        0.1689169757         27.98165624        0.5707625449         -73.3826772
      3.760248e+010       0.6968076408        -98.39064672         3.239665602         104.9078116        0.1689765626         27.94197415        0.5703186494        -73.43643322
      3.765247e+010       0.6966763529        -98.45542149         3.236582763         104.8510653          0.16903596          27.9023583        0.5698755171        -73.49011928
      3.770246e+010        0.696545478        -98.52008037         3.233504647         104.7943859        0.1690951684         27.86280854        0.5694331467        -73.54373552
      3.775245e+010       0.6964150153        -98.58462362         3.230431246         104.7377732        0.1691541885          27.8233247        0.5689915372        -73.59728211
      3.780244e+010       0.6962849639        -98.64905148         3.227362554          104.681227        0.1692130209         27.78390663        0.5685506873         -73.6507592
      3.785243e+010       0.6961553231         -98.7133642         3.224298563         104.6247472        0.1692716663         27.74455417        0.5681105959        -73.70416695
      3.790242e+010       0.6960260919        -98.77756201         3.221239267         104.5683337        0.1693301253         27.70526715        0.5676712618        -73.75750553
      3.795241e+010       0.6958972694        -98.84164515         3.218184659         104.5119861        0.1693883985         27.66604542        0.5672326839        -73.81077508
       3.80024e+010       0.6957688549        -98.90561388         3.215134731         104.4557045        0.1694464865         27.62688882        0.5667948609        -73.86397577
      3.805239e+010       0.6956408476        -98.96946843         3.212089478         104.3994887        0.1695043899         27.58779719        0.5663577918        -73.91710775
      3.810238e+010       0.6955132464        -99.03320904         3.209048891         104.3433384        0.1695621094         27.54877037        0.5659214752        -73.97017117
      3.815237e+010       0.6953860507        -99.09683595         3.206012965         104.2872536        0.1696196455         27.50980821        0.5654859102        -74.02316619
      3.820236e+010       0.6952592595        -99.16034941         3.202981691         104.2312341         0.169676999         27.47091054        0.5650510954        -74.07609298
      3.825235e+010       0.6951328721        -99.22374965         3.199955064         104.1752797        0.1697341703         27.43207721        0.5646170297        -74.12895167
      3.830234e+010       0.6950068875         -99.2870369         3.196933076         104.1193902        0.1697911601         27.39330807         0.564183712        -74.18174243
      3.835233e+010       0.6948813049        -99.35021142          3.19391572         104.0635656        0.1698479689         27.35460296         0.563751141        -74.23446541
      3.840232e+010       0.6947561235        -99.41327344         3.190902989         104.0078056        0.1699045975         27.31596172        0.5633193156        -74.28712076
      3.845231e+010       0.6946313425        -99.47622319         3.187894876         103.9521101        0.1699610464          27.2773842        0.5628882346        -74.33970864
       3.85023e+010        0.694506961        -99.53906091         3.184891375          103.896479        0.1700173161         27.23887024        0.5624578969         -74.3922292
      3.855229e+010       0.6943829782        -99.60178684         3.181892478         103.8409121        0.1700734074         27.20041969        0.5620283012        -74.44468259
      3.860228e+010       0.6942593931        -99.66440122         3.178898178         103.7854092        0.1701293207          27.1620324        0.5615994463        -74.49706896
      3.865227e+010       0.6941362051        -99.72690427         3.175908468         103.7299702        0.1701850566         27.12370821        0.5611713312        -74.54938846
      3.870226e+010       0.6940134132        -99.78929625         3.172923342          103.674595        0.1702406159         27.08544697        0.5607439545        -74.60164125
      3.875225e+010       0.6938910167        -99.85157737         3.169942791         103.6192833        0.1702959989         27.04724853        0.5603173152        -74.65382748
      3.880224e+010       0.6937690146        -99.91374788          3.16696681         103.5640351        0.1703512064         27.00911273         0.559891412        -74.70594729
      3.885223e+010       0.6936474061        -99.97580801         3.163995391         103.5088502        0.1704062389         26.97103943        0.5594662438        -74.75800084
      3.890222e+010       0.6935261905         -100.037758         3.161028528         103.4537284        0.1704610969         26.93302847        0.5590418094        -74.80998827
      3.895221e+010       0.6934053669        -100.0995981         3.158066212         103.3986696        0.1705157811          26.8950797        0.5586181076        -74.86190974
       3.90022e+010       0.6932849344        -100.1613284         3.155108438         103.3436737        0.1705702921         26.85719298        0.5581951372        -74.91376539
      3.905219e+010       0.6931648923        -100.2229494         3.152155197         103.2887404        0.1706246303         26.81936814         0.557772897        -74.96555537
      3.910218e+010       0.6930452396        -100.2844611         3.149206484         103.2338697        0.1706787965         26.78160505        0.5573513859        -75.01727983
      3.915217e+010       0.6929259756        -100.3458638         3.146262291         103.1790613        0.1707327911         26.74390355        0.5569306027        -75.06893892
      3.920216e+010       0.6928070994        -100.4071578          3.14332261         103.1243152        0.1707866146         26.70626349        0.5565105462        -75.12053277
      3.925215e+010       0.6926886103        -100.4683432         3.140387436         103.0696312        0.1708402678         26.66868472        0.5560912151        -75.17206155
      3.930214e+010       0.6925705073        -100.5294204          3.13745676         103.0150092        0.1708937511         26.63116711        0.5556726084        -75.22352539
      3.935213e+010       0.6924527897        -100.5903894         3.134530577         102.9604489        0.1709470651         26.59371049        0.5552547248        -75.27492445
      3.940212e+010       0.6923354566        -100.6512507         3.131608878         102.9059504        0.1710002103         26.55631473        0.5548375632        -75.32625886
      3.945211e+010       0.6922185073        -100.7120043         3.128691657         102.8515133        0.1710531874         26.51897967        0.5544211223        -75.37752877
       3.95021e+010       0.6921019408        -100.7726505         3.125778906         102.7971376        0.1711059968         26.48170518         0.554005401        -75.42873433
      3.955209e+010       0.6919857565        -100.8331896         3.122870619         102.7428231        0.1711586391         26.44449109        0.5535903982        -75.47987568
      3.960208e+010       0.6918699533        -100.8936218         3.119966789         102.6885697        0.1712111149         26.40733728        0.5531761125        -75.53095297
      3.965207e+010       0.6917545306        -100.9539472         3.117067408         102.6343772        0.1712634247         26.37024358        0.5527625429        -75.58196633
      3.970206e+010       0.6916394876        -101.0141662          3.11417247         102.5802455        0.1713155691         26.33320987        0.5523496881        -75.63291592
      3.975205e+010       0.6915248233        -101.0742789         3.111281967         102.5261744        0.1713675486         26.29623599         0.551937547        -75.68380186
      3.980204e+010        0.691410537        -101.1342856         3.108395893         102.4721639        0.1714193637          26.2593218        0.5515261183        -75.73462432
      3.985203e+010       0.6912966279        -101.1941865          3.10551424         102.4182137         0.171471015         26.22246715         0.551115401        -75.78538342
      3.990202e+010       0.6911830952        -101.2539818         3.102637001         102.3643237         0.171522503         26.18567191        0.5507053938        -75.83607931
      3.995201e+010        0.691069938        -101.3136718         3.099764169         102.3104938        0.1715738283         26.14893593        0.5502960955        -75.88671213
        4.0002e+010       0.6909571555        -101.3732566         3.096895738         102.2567239        0.1716249914         26.11225906        0.5498875049        -75.93728202
      4.005199e+010        0.690844747        -101.4327365           3.0940317         102.2030137        0.1716759928         26.07564117        0.5494796209        -75.98778912
      4.010198e+010       0.6907327116        -101.4921118         3.091172047         102.1493632         0.171726833         26.03908212        0.5490724423        -76.03823358
      4.015197e+010       0.6906210485        -101.5513825         3.088316774         102.0957722        0.1717775126         26.00258175        0.5486659678        -76.08861552
      4.020196e+010       0.6905097569        -101.6105491         3.085465872         102.0422406        0.1718280321         25.96613994        0.5482601964         -76.1389351
      4.025195e+010        0.690398836        -101.6696116         3.082619335         101.9887681        0.1718783921         25.92975654        0.5478551268        -76.18919244
      4.030194e+010       0.6902882851        -101.7285703         3.079777157         101.9353548         0.171928593         25.89343142        0.5474507578        -76.23938769
      4.035193e+010       0.6901781032        -101.7874254         3.076939328         101.8820005        0.1719786354         25.85716442        0.5470470883        -76.28952099
      4.040192e+010       0.6900682896        -101.8461772         3.074105844         101.8287049        0.1720285197         25.82095542        0.5466441171        -76.33959247
      4.045191e+010       0.6899588435        -101.9048258         3.071276696         101.7754681        0.1720782466         25.78480427         0.546241843        -76.38960227
       4.05019e+010       0.6898497641        -101.9633715         3.068451878         101.7222897        0.1721278165         25.74871083        0.5458402648        -76.43955053
      4.055189e+010       0.6897410506        -102.0218145         3.065631382         101.6691698        0.1721772299         25.71267498        0.5454393813        -76.48943739
      4.060188e+010       0.6896327022        -102.0801549         3.062815201         101.6161081        0.1722264873         25.67669656        0.5450391914        -76.53926297
      4.065187e+010       0.6895247181        -102.1383932         3.060003329         101.5631046        0.1722755893         25.64077544        0.5446396939        -76.58902742
      4.070186e+010       0.6894170976        -102.1965293         3.057195759         101.5101591        0.1723245363         25.60491149        0.5442408875        -76.63873087
      4.075185e+010       0.6893098397        -102.2545637         3.054392483         101.4572714         0.172373329         25.56910456        0.5438427712        -76.68837346
      4.080184e+010       0.6892029438        -102.3124964         3.051593493         101.4044414        0.1724219676         25.53335453        0.5434453437        -76.73795532
      4.085183e+010        0.689096409        -102.3703277         3.048798785         101.3516691        0.1724704529         25.49766125        0.5430486039        -76.78747659
      4.090182e+010       0.6889902345        -102.4280578         3.046008349         101.2989541        0.1725187851          25.4620246        0.5426525505        -76.83693739
      4.095181e+010       0.6888844196        -102.4856869          3.04322218         101.2462965         0.172566965         25.42644443        0.5422571825        -76.88633787
       4.10018e+010       0.6887789635        -102.5432153         3.040440269         101.1936961        0.1726149929         25.39092061        0.5418624985        -76.93567816
      4.105179e+010       0.6886738654        -102.6006431         3.037662611         101.1411528        0.1726628693           25.355453        0.5414684976        -76.98495838
      4.110178e+010       0.6885691245        -102.6579706         3.034889198         101.0886663        0.1727105948         25.32004148        0.5410751784        -77.03417868
      4.115177e+010       0.6884647399        -102.7151979         3.032120022         101.0362366        0.1727581698          25.2846859        0.5406825397        -77.08333918
      4.120176e+010       0.6883607111        -102.7723254         3.029355078         100.9838636        0.1728055949         25.24938614        0.5402905806        -77.13244002
      4.125175e+010        0.688257037        -102.8293531         3.026594358         100.9315471        0.1728528704         25.21414207        0.5398992996        -77.18148132
      4.130174e+010       0.6881537171        -102.8862814         3.023837854          100.879287        0.1728999969         25.17895354        0.5395086957        -77.23046323
      4.135173e+010       0.6880507504        -102.9431104         3.021085561         100.8270832        0.1729469749         25.14382043        0.5391187678        -77.27938586
      4.140172e+010       0.6879481363        -102.9998403          3.01833747         100.7749355        0.1729938049          25.1087426        0.5387295145        -77.32824936
      4.145171e+010       0.6878458739        -103.0564713         3.015593575         100.7228437        0.1730404872         25.07371993        0.5383409349        -77.37705384
       4.15017e+010       0.6877439625        -103.1130037         3.012853869         100.6708079        0.1730870225         25.03875229        0.5379530276        -77.42579944
      4.155169e+010       0.6876424012        -103.1694377         3.010118345         100.6188278        0.1731334111         25.00383953        0.5375657915        -77.47448629
      4.160168e+010       0.6875411894        -103.2257734         3.007386996         100.5669032        0.1731796537         24.96898154        0.5371792255        -77.52311452
      4.165167e+010       0.6874403263        -103.2820112         3.004659815         100.5150342        0.1732257505         24.93417818        0.5367933283        -77.57168426
      4.170166e+010        0.687339811        -103.3381511         3.001936795         100.4632205        0.1732717021         24.89942932        0.5364080989        -77.62019563
      4.175165e+010       0.6872396428        -103.3941934         2.999217928          100.411462         0.173317509         24.86473483        0.5360235359        -77.66864876
      4.180164e+010        0.687139821        -103.4501383         2.996503208         100.3597587        0.1733631716         24.83009459        0.5356396384        -77.71704378
      4.185163e+010       0.6870403448         -103.505986         2.993792628         100.3081103        0.1734086904         24.79550847        0.5352564051        -77.76538082
      4.190162e+010       0.6869412134        -103.5617367         2.991086182         100.2565167        0.1734540659         24.76097633        0.5348738348        -77.81366001
      4.195161e+010       0.6868424261        -103.6173906         2.988383861         100.2049778        0.1734992985         24.72649805        0.5344919264        -77.86188146
       4.20016e+010        0.686743982         -103.672948         2.985685659         100.1534935        0.1735443887          24.6920735        0.5341106787        -77.91004531
      4.205159e+010       0.6866458805         -103.728409         2.982991569         100.1020637        0.1735893369         24.65770256        0.5337300906        -77.95815168
      4.210158e+010       0.6865481207        -103.7837738         2.980301584         100.0506882        0.1736341436          24.6233851        0.5333501608        -78.00620071
      4.215157e+010        0.686450702        -103.8390427         2.977615697         99.99936694        0.1736788093         24.58912099        0.5329708883         -78.0541925
      4.220156e+010       0.6863536235        -103.8942158         2.974933901         99.94809973        0.1737233343          24.5549101        0.5325922719        -78.10212719
      4.225155e+010       0.6862568846        -103.9492934          2.97225619         99.89688649        0.1737677192         24.52075231        0.5322143103        -78.15000491
      4.230154e+010       0.6861604843        -104.0042756         2.969582555         99.84572707        0.1738119645          24.4866475        0.5318370025        -78.19782577
      4.235153e+010       0.6860644221        -104.0591626         2.966912991         99.79462136        0.1738560704         24.45259554        0.5314603473         -78.2455899
      4.240152e+010       0.6859686972        -104.1139547         2.964247491         99.74356924        0.1739000376          24.4185963        0.5310843436        -78.29329742
      4.245151e+010       0.6858733087         -104.168652         2.961586046         99.69257057        0.1739438664         24.38464967        0.5307089901        -78.34094846
       4.25015e+010        0.685778256        -104.2232548         2.958928651         99.64162524        0.1739875573         24.35075551        0.5303342857        -78.38854314
      4.255149e+010       0.6856835383        -104.2777633         2.956275299         99.59073313        0.1740311107          24.3169137        0.5299602294        -78.43608159
      4.260148e+010       0.6855891548        -104.3321776         2.953625982         99.53989411        0.1740745271         24.28312412        0.5295868198        -78.48356391
      4.265147e+010       0.6854951049         -104.386498         2.950980695         99.48910806        0.1741178068         24.24938665        0.5292140559        -78.53099025
      4.270146e+010       0.6854013877        -104.4407246         2.948339428         99.43837485        0.1741609505         24.21570116        0.5288419365         -78.5783607
      4.275145e+010       0.6853080026        -104.4948576         2.945702177         99.38769438        0.1742039583         24.18206754        0.5284704605        -78.62567541
      4.280144e+010       0.6852149487        -104.5488974         2.943068934         99.33706651        0.1742468309         24.14848565        0.5280996267        -78.67293449
      4.285143e+010       0.6851222254        -104.6028439         2.940439692         99.28649112        0.1742895687         24.11495539         0.527729434        -78.72013805
      4.290142e+010       0.6850298319        -104.6566975         2.937814444          99.2359681         0.174332172         24.08147662        0.5273598812        -78.76728622
      4.295141e+010       0.6849377675        -104.7104584         2.935193184         99.18549733        0.1743746413         24.04804922        0.5269909671        -78.81437913
       4.30014e+010       0.6848460315        -104.7641266         2.932575904         99.13507868         0.174416977         24.01467308        0.5266226907        -78.86141688
      4.305139e+010        0.684754623        -104.8177026         2.929962598         99.08471203        0.1744591796         23.98134808        0.5262550508        -78.90839959
      4.310138e+010       0.6846635414        -104.8711863         2.927353258         99.03439727        0.1745012494         23.94807409        0.5258880462         -78.9553274
      4.315137e+010        0.684572786        -104.9245781         2.924747879         98.98413428         0.174543187           23.914851        0.5255216759        -79.00220041
      4.320136e+010        0.684482356        -104.9778781         2.922146452         98.93392294        0.1745849926         23.88167868        0.5251559386        -79.04901874
      4.325135e+010       0.6843922507        -105.0310865         2.919548972         98.88376314        0.1746266668         23.84855702        0.5247908332        -79.09578251
      4.330134e+010       0.6843024693        -105.0842035         2.916955431         98.83365474          0.17466821          23.8154859        0.5244263586        -79.14249184
      4.335133e+010       0.6842130112        -105.1372293         2.914365823         98.78359764        0.1747096225         23.78246521        0.5240625136        -79.18914685
      4.340132e+010       0.6841238755        -105.1901641          2.91178014         98.73359172        0.1747509047         23.74949481        0.5236992972        -79.23574764
      4.345131e+010       0.6840350617        -105.2430081         2.909198377         98.68363687        0.1747920572          23.7165746        0.5233367081        -79.28229435
       4.35013e+010        0.683946569        -105.2957615         2.906620525         98.63373296        0.1748330803         23.68370446        0.5229747453        -79.32878708
      4.355129e+010       0.6838583966        -105.3484244         2.904046579         98.58387988        0.1748739744         23.65088427        0.5226134076        -79.37522594
      4.360128e+010       0.6837705438        -105.4009971         2.901476531         98.53407752        0.1749147399         23.61811391        0.5222526938        -79.42161107
      4.365127e+010       0.6836830099        -105.4534798         2.898910375         98.48432575        0.1749553773         23.58539327         0.521892603        -79.46794257
      4.370126e+010       0.6835957943        -105.5058726         2.896348103         98.43462447        0.1749958869         23.55272223        0.5215331338        -79.51422055
      4.375125e+010       0.6835088961        -105.5581758          2.89378971         98.38497356        0.1750362691         23.52010068        0.5211742852        -79.56044513
      4.380124e+010       0.6834223147        -105.6103894         2.891235188         98.33537291        0.1750765244          23.4875285        0.5208160561        -79.60661643
      4.385123e+010       0.6833360494        -105.6625138         2.888684531         98.28582239        0.1751166531         23.45500558        0.5204584453        -79.65273455
      4.390122e+010       0.6832500994        -105.7145491         2.886137732         98.23632191        0.1751566556          23.4225318        0.5201014517        -79.69879962
      4.395121e+010       0.6831644641        -105.7664955         2.883594783         98.18687133        0.1751965324         23.39010705        0.5197450742        -79.74481175
       4.40012e+010       0.6830791427        -105.8183532         2.881055679         98.13747056        0.1752362838         23.35773121        0.5193893117        -79.79077104
      4.405119e+010       0.6829941345        -105.8701223         2.878520413         98.08811948        0.1752759103         23.32540417        0.5190341631        -79.83667761
      4.410118e+010       0.6829094389        -105.9218031         2.875988977         98.03881797        0.1753154122         23.29312581        0.5186796271        -79.88253158
      4.415117e+010       0.6828250551        -105.9733957         2.873461366         97.98956592        0.1753547899         23.26089603        0.5183257028        -79.92833306
      4.420116e+010       0.6827409824        -106.0249004         2.870937572         97.94036322        0.1753940438         23.22871471         0.517972389        -79.97408215
      4.425115e+010       0.6826572201        -106.0763173         2.868417589         97.89120977        0.1754331742         23.19658174        0.5176196845        -80.01977897
      4.430114e+010       0.6825737676        -106.1276466         2.865901409         97.84210544        0.1754721817           23.164497        0.5172675883        -80.06542363
      4.435113e+010        0.682490624        -106.1788884         2.863389027         97.79305013        0.1755110666         23.13246039        0.5169160992        -80.11101624
      4.440112e+010       0.6824077889        -106.2300431         2.860880436         97.74404373        0.1755498291         23.10047179        0.5165652162        -80.15655691
      4.445111e+010       0.6823252613        -106.2811107         2.858375628         97.69508612        0.1755884699         23.06853109        0.5162149381        -80.20204576
       4.45011e+010       0.6822430407        -106.3320914         2.855874598          97.6461772        0.1756269891         23.03663818        0.5158652639        -80.24748289
      4.455109e+010       0.6821611263        -106.3829854         2.853377338         97.59731686        0.1756653873         23.00479295        0.5155161923         -80.2928684
      4.460108e+010       0.6820795175         -106.433793         2.850883842         97.54850499        0.1757036647         22.97299529        0.5151677224        -80.33820242
      4.465107e+010       0.6819982136        -106.4845143         2.848394103         97.49974147        0.1757418218         22.94124509        0.5148198529        -80.38348505
      4.470106e+010       0.6819172139        -106.5351494         2.845908116          97.4510262        0.1757798589         22.90954224        0.5144725828         -80.4287164
      4.475105e+010       0.6818365176        -106.5856986         2.843425872         97.40235908        0.1758177764         22.87788663        0.5141259111        -80.47389658
      4.480104e+010       0.6817561242         -106.636162         2.840947365         97.35373999        0.1758555747         22.84627816        0.5137798365        -80.51902569
      4.485103e+010       0.6816760329        -106.6865399         2.838472589         97.30516882        0.1758932541          22.8147167         0.513434358        -80.56410384
      4.490102e+010       0.6815962431        -106.7368323         2.836001537         97.25664547        0.1759308151         22.78320216        0.5130894745        -80.60913114
      4.495101e+010        0.681516754        -106.7870395         2.833534203         97.20816983         0.175968258         22.75173443        0.5127451849         -80.6541077
        4.5001e+010        0.681437565        -106.8371617          2.83107058         97.15974179        0.1760055831         22.72031339        0.5124014881        -80.69903363
      4.505099e+010       0.6813586754         -106.887199         2.828610661         97.11136126        0.1760427908         22.68893895         0.512058383        -80.74390903
      4.510098e+010       0.6812800846        -106.9371516         2.826154439         97.06302811        0.1760798816         22.65761099        0.5117158685          -80.788734
      4.515097e+010       0.6812017918        -106.9870198         2.823701909         97.01474224        0.1761168557         22.62632941        0.5113739435        -80.83350866
      4.520096e+010       0.6811237965        -107.0368036         2.821253064         96.96650356        0.1761537135         22.59509409         0.511032607        -80.87823311
      4.525095e+010       0.6810460978        -107.0865032         2.818807896         96.91831195        0.1761904554         22.56390494        0.5106918577        -80.92290746
      4.530094e+010       0.6809686952        -107.1361189           2.8163664          96.8701673        0.1762270818         22.53276185        0.5103516948         -80.9675318
      4.535093e+010       0.6808915879        -107.1856508         2.813928569         96.82206952        0.1762635929         22.50166471         0.510012117        -81.01210625
      4.540092e+010       0.6808147754        -107.2350991         2.811494396          96.7740185        0.1762999892         22.47061342        0.5096731233        -81.05663091
      4.545091e+010       0.6807382569         -107.284464         2.809063876         96.72601413         0.176336271         22.43960787        0.5093347126        -81.10110589
       4.55009e+010       0.6806620317        -107.3337456            2.806637         96.67805632        0.1763724387         22.40864796        0.5089968838        -81.14553128
      4.555089e+010       0.6805860993        -107.3829441         2.804213764         96.63014495        0.1764084926         22.37773358        0.5086596359         -81.1899072
      4.560088e+010        0.680510459        -107.4320597         2.801794159         96.58227992        0.1764444331         22.34686462        0.5083229677        -81.23423374
      4.565087e+010         0.68043511        -107.4810925         2.799378181         96.53446113        0.1764802605         22.31604099        0.5079868782        -81.27851101
      4.570086e+010       0.6803600518        -107.5300428         2.796965822         96.48668849        0.1765159752         22.28526258        0.5076513663        -81.32273911
      4.575085e+010       0.6802852836        -107.5789107         2.794557076         96.43896187        0.1765515775         22.25452929        0.5073164309        -81.36691815
      4.580084e+010       0.6802108049        -107.6276964         2.792151937         96.39128119        0.1765870678         22.22384101         0.506982071        -81.41104822
      4.585083e+010       0.6801366149        -107.6764001         2.789750397         96.34364634        0.1766224464         22.19319765        0.5066482854        -81.45512943
      4.590082e+010        0.680062713        -107.7250219         2.787352451         96.29605722        0.1766577136         22.16259909        0.5063150732        -81.49916188
      4.595081e+010       0.6799890986         -107.773562         2.784958092         96.24851373        0.1766928699         22.13204524        0.5059824333        -81.54314568
       4.60008e+010        0.679915771        -107.8220206         2.782567313         96.20101576        0.1767279155         22.10153599        0.5056503645        -81.58708092
      4.605079e+010       0.6798427295        -107.8703978         2.780180109         96.15356322        0.1767628507         22.07107124        0.5053188658         -81.6309677
      4.610078e+010       0.6797699736        -107.9186938         2.777796473           96.106156        0.1767976761          22.0406509        0.5049879362        -81.67480613
      4.615077e+010       0.6796975025        -107.9669089         2.775416398         96.05879401        0.1768323917         22.01027485        0.5046575745         -81.7185963
      4.620076e+010       0.6796253156        -108.0150431         2.773039878         96.01147715        0.1768669981         21.97994301        0.5043277798        -81.76233832
      4.625075e+010       0.6795534123        -108.0630966         2.770666907         95.96420531        0.1769014955         21.94965526         0.503998551        -81.80603228
      4.630074e+010        0.679481792        -108.1110697         2.768297478          95.9169784        0.1769358843         21.91941152        0.5036698869        -81.84967829
      4.635073e+010       0.6794104539        -108.1589624         2.765931584         95.86979631        0.1769701648         21.88921167        0.5033417867        -81.89327645
      4.640072e+010       0.6793393975         -108.206775          2.76356922         95.82265895        0.1770043374         21.85905562        0.5030142491        -81.93682685
      4.645071e+010        0.679268622        -108.2545075          2.76121038         95.77556623        0.1770384023         21.82894327        0.5026872731        -81.98032959
       4.65007e+010        0.679198127        -108.3021603         2.758855056         95.72851803        0.1770723599         21.79887452        0.5023608578        -82.02378477
      4.655069e+010       0.6791279117        -108.3497334         2.756503243         95.68151427        0.1771062105         21.76884928        0.5020350019        -82.06719249
      4.660068e+010       0.6790579755         -108.397227         2.754154933         95.63455484        0.1771399545         21.73886743        0.5017097046        -82.11055285
      4.665067e+010       0.6789883177        -108.4446413         2.751810122         95.58763965        0.1771735921         21.70892889        0.5013849647        -82.15386594
      4.670066e+010       0.6789189378        -108.4919765         2.749468802          95.5407686        0.1772071238         21.67903356        0.5010607812        -82.19713186
      4.675065e+010       0.6788498351        -108.5392327         2.747130967          95.4939416        0.1772405498         21.64918133        0.5007371531        -82.24035072
      4.680064e+010        0.678781009          -108.58641         2.744796611         95.44715854        0.1772738705         21.61937212        0.5004140793         -82.2835226
      4.685063e+010       0.6787124589        -108.6335088         2.742465728         95.40041934        0.1773070861         21.58960582        0.5000915587         -82.3266476
      4.690062e+010        0.678644184         -108.680529         2.740138311         95.35372389         0.177340197         21.55988234        0.4997695904        -82.36972582
      4.695061e+010       0.6785761839        -108.7274709         2.737814354          95.3070721        0.1773732035         21.53020158        0.4994481732        -82.41275736
       4.70006e+010       0.6785084579        -108.7743346         2.735493851         95.26046387         0.177406106         21.50056344        0.4991273063        -82.45574231
      4.705059e+010       0.6784410053        -108.8211204         2.733176795         95.21389911        0.1774389047         21.47096783        0.4988069884        -82.49868076
      4.710058e+010       0.6783738255        -108.8678283         2.730863181         95.16737773           0.1774716         21.44141466        0.4984872186        -82.54157282
      4.715057e+010        0.678306918        -108.9144586         2.728553002         95.12089962        0.1775041921         21.41190382        0.4981679959        -82.58441858
      4.720056e+010       0.6782402821        -108.9610114         2.726246252          95.0744647        0.1775366815         21.38243522        0.4978493192        -82.62721812
      4.725055e+010       0.6781739171        -109.0074868         2.723942924         95.02807287        0.1775690683         21.35300876        0.4975311874        -82.66997156
      4.730054e+010       0.6781078226        -109.0538851         2.721643013         94.98172403         0.177601353         21.32362436        0.4972135997        -82.71267897
      4.735053e+010       0.6780419978        -109.1002063         2.719346513          94.9354181        0.1776335358         21.29428192        0.4968965549        -82.75534046
      4.740052e+010       0.6779764421        -109.1464507         2.717053416         94.88915497         0.177665617         21.26498134         0.496580052        -82.79795612
      4.745051e+010        0.677911155        -109.1926184         2.714763717         94.84293456         0.177697597         21.23572252        0.4962640899        -82.84052604
       4.75005e+010       0.6778461358        -109.2387096          2.71247741         94.79675678         0.177729476         21.20650538        0.4959486678        -82.88305032
      4.755049e+010       0.6777813839        -109.2847244         2.710194489         94.75062152        0.1777612544         21.17732983        0.4956337845        -82.92552905
      4.760048e+010       0.6777168987         -109.330663         2.707914947          94.7045287        0.1777929324         21.14819576        0.4953194391        -82.96796231
      4.765047e+010       0.6776526796        -109.3765256         2.705638778         94.65847823        0.1778245104         21.11910308        0.4950056304        -83.01035021
      4.770046e+010       0.6775887261        -109.4223123         2.703365976         94.61247002        0.1778559886         21.09005171        0.4946923576        -83.05269284
      4.775045e+010       0.6775250374        -109.4680232         2.701096536         94.56650396        0.1778873674         21.06104155        0.4943796195        -83.09499028
      4.780044e+010       0.6774616131        -109.5136586          2.69883045         94.52057998        0.1779186471          21.0320725        0.4940674153        -83.13724264
      4.785043e+010       0.6773984524        -109.5592185         2.696567714         94.47469797         0.177949828         21.00314449        0.4937557438           -83.17945
      4.790042e+010       0.6773355548        -109.6047033          2.69430832         94.42885786        0.1779809103          20.9742574         0.493444604        -83.22161244
      4.795041e+010       0.6772729198        -109.6501129         2.692052262         94.38305954        0.1780118943         20.94541116         0.493133995        -83.26373008
       4.80004e+010       0.6772105466        -109.6954476         2.689799536         94.33730293        0.1780427805         20.91660567        0.4928239158        -83.30580298
      4.805039e+010       0.6771484348        -109.7407075         2.687550134         94.29158794        0.1780735689         20.88784084        0.4925143653        -83.34783126
      4.810038e+010       0.6770865836        -109.7858928          2.68530405         94.24591448          0.17810426         20.85911658        0.4922053425        -83.38981498
      4.815037e+010       0.6770249927        -109.8310036         2.683061279         94.20028246        0.1781348541          20.8304328        0.4918968465        -83.43175426
      4.820036e+010       0.6769636612        -109.8760401         2.680821814         94.15469178        0.1781653514         20.80178941        0.4915888763        -83.47364916
      4.825035e+010       0.6769025887        -109.9210024          2.67858565         94.10914237        0.1781957521         20.77318632        0.4912814307         -83.5154998
      4.830034e+010       0.6768417746        -109.9658908          2.67635278         94.06363413        0.1782260567         20.74462344         0.490974509        -83.55730624
      4.835033e+010       0.6767812182        -110.0107053         2.674123198         94.01816697        0.1782562654         20.71610068        0.4906681099        -83.59906859
      4.840032e+010        0.676720919        -110.0554461         2.671896899         93.97274081        0.1782863785         20.68761795        0.4903622327        -83.64078693
      4.845031e+010       0.6766608765        -110.1001134         2.669673876         93.92735555        0.1783163963         20.65917516        0.4900568762        -83.68246136
       4.85003e+010         0.67660109        -110.1447073         2.667454124         93.88201111         0.178346319         20.63077223        0.4897520395        -83.72409195
      4.855029e+010       0.6765415589         -110.189228         2.665237636          93.8367074        0.1783761469         20.60240906        0.4894477216        -83.76567879
      4.860028e+010       0.6764822827        -110.2336756         2.663024406         93.79144434        0.1784058804         20.57408557        0.4891439215        -83.80722199
      4.865027e+010       0.6764232607        -110.2780503         2.660814429         93.74622183        0.1784355196         20.54580166        0.4888406382        -83.84872161
      4.870026e+010       0.6763644925        -110.3223522         2.658607699          93.7010398         0.178465065         20.51755726        0.4885378708        -83.89017775
      4.875025e+010       0.6763059774        -110.3665815         2.656404209         93.65589815        0.1784945167         20.48935228        0.4882356182         -83.9315905
      4.880024e+010       0.6762477149        -110.4107384         2.654203955         93.61079679         0.178523875         20.46118662        0.4879338796        -83.97295995
      4.885023e+010       0.6761897044        -110.4548229         2.652006928         93.56573564        0.1785531403          20.4330602        0.4876326538        -84.01428617
      4.890022e+010       0.6761319452        -110.4988352         2.649813125         93.52071462        0.1785823128         20.40497293          0.48733194        -84.05556927
      4.895021e+010        0.676074437        -110.5427756         2.647622539         93.47573364        0.1786113927         20.37692473        0.4870317371        -84.09680931
       4.90002e+010        0.676017179        -110.5866441         2.645435164         93.43079262        0.1786403804         20.34891551        0.4867320442        -84.13800639
      4.905019e+010       0.6759601707        -110.6304409         2.643250995         93.38589146        0.1786692762         20.32094518        0.4864328603         -84.1791606
      4.910018e+010       0.6759034116        -110.6741661         2.641070025         93.34103009        0.1786980802         20.29301367        0.4861341844        -84.22027202
      4.915017e+010        0.675846901        -110.7178199         2.638892248         93.29620841        0.1787267928         20.26512087        0.4858360156        -84.26134074
      4.920016e+010       0.6757906385        -110.7614025         2.636717659         93.25142635        0.1787554142         20.23726672         0.485538353        -84.30236683
      4.925015e+010       0.6757346234        -110.8049139         2.634546252         93.20668382        0.1787839448         20.20945112        0.4852411954        -84.34335039
      4.930014e+010       0.6756788552        -110.8483544         2.632378021         93.16198074        0.1788123847         20.18167398        0.4849445421        -84.38429151
      4.935013e+010       0.6756233333        -110.8917241         2.630212961         93.11731702        0.1788407343         20.15393523         0.484648392        -84.42519025
      4.940012e+010       0.6755680572        -110.9350231         2.628051065         93.07269258        0.1788689938         20.12623478        0.4843527441        -84.46604672
      4.945011e+010       0.6755130263        -110.9782515         2.625892327         93.02810734        0.1788971635         20.09857254        0.4840575975        -84.50686098
       4.95001e+010       0.6754582401        -111.0214096         2.623736743         92.98356121        0.1789252436         20.07094843        0.4837629513        -84.54763314
      4.955009e+010        0.675403698        -111.0644975         2.621584306         92.93905411        0.1789532345         20.04336237        0.4834688045        -84.58836326
      4.960008e+010       0.6753493995        -111.1075153         2.619435009         92.89458596        0.1789811363         20.01581428        0.4831751561        -84.62905143
      4.965007e+010        0.675295344        -111.1504632         2.617288849         92.85015667        0.1790089494         19.98830407        0.4828820051        -84.66969774
      4.970006e+010       0.6752415309        -111.1933413         2.615145818         92.80576617        0.1790366739         19.96083165        0.4825893508        -84.71030227
      4.975005e+010       0.6751879597        -111.2361497         2.613005912         92.76141437        0.1790643103         19.93339695         0.482297192        -84.75086511
      4.980004e+010       0.6751346298        -111.2788886         2.610869124         92.71710118        0.1790918586         19.90599988        0.4820055278        -84.79138632
      4.985003e+010       0.6750815408        -111.3215582         2.608735449         92.67282654        0.1791193193         19.87864037        0.4817143573          -84.831866
      4.990002e+010       0.6750286921        -111.3641586          2.60660488         92.62859035        0.1791466924         19.85131832        0.4814236796        -84.87230423
      4.995001e+010        0.674976083        -111.4066899         2.604477413         92.58439254        0.1791739784         19.82403366        0.4811334937        -84.91270109
             5e+010       0.6749237132        -111.4491523         2.602353042         92.54023303        0.1792011774          19.7967863        0.4808437987        -84.95305666
