! Forward-simulated: Open dummy (pad caps only)
!   Cpbe_fF = 22.0
!   Cpce_fF = 18.0
!   Cpbc_fF = 5.0
# Hz S DB R 50
10000000 -0.00000000 -0.00972000 -90.05700260 89.99100000 -90.05700260 89.99100000 -0.00000000 -0.00828000
14990000 -0.00000001 -0.01457028 -86.54097002 89.98650900 -86.54097002 89.98650900 -0.00000001 -0.01241172
19980000 -0.00000002 -0.01942056 -84.04509309 89.98201800 -84.04509309 89.98201800 -0.00000002 -0.01654344
24970000 -0.00000003 -0.02427084 -82.10863205 89.97752700 -82.10863205 89.97752700 -0.00000003 -0.02067516
29960000 -0.00000004 -0.02912112 -80.52616687 89.97303600 -80.52616687 89.97303600 -0.00000004 -0.02480688
34950000 -0.00000005 -0.03397140 -79.18805963 89.96854500 -79.18805963 89.96854500 -0.00000005 -0.02893860
39940000 -0.00000007 -0.03882168 -78.02884223 89.96405400 -78.02884223 89.96405400 -0.00000007 -0.03307032
44930000 -0.00000009 -0.04367196 -77.00627531 89.95956300 -77.00627531 89.95956300 -0.00000009 -0.03720204
49920000 -0.00000011 -0.04852224 -76.09151241 89.95507200 -76.09151241 89.95507200 -0.00000011 -0.04133376
54910000 -0.00000013 -0.05337252 -75.26397536 89.95058100 -75.26397536 89.95058100 -0.00000013 -0.04546548
59900000 -0.00000015 -0.05822279 -74.50846811 89.94609000 -74.50846811 89.94609000 -0.00000015 -0.04959720
64890000 -0.00000018 -0.06307307 -73.81344942 89.94159901 -73.81344942 89.94159901 -0.00000018 -0.05372892
69880000 -0.00000021 -0.06792335 -73.16994736 89.93710801 -73.16994736 89.93710801 -0.00000021 -0.05786063
74870000 -0.00000024 -0.07277363 -72.57084903 89.93261701 -72.57084903 89.93261701 -0.00000024 -0.06199235
79860000 -0.00000027 -0.07762391 -72.01042000 89.92812601 -72.01042000 89.92812601 -0.00000027 -0.06612407
84850000 -0.00000031 -0.08247418 -71.48396965 89.92363501 -71.48396965 89.92363501 -0.00000031 -0.07025579
89840000 -0.00000035 -0.08732446 -70.98761221 89.91914402 -70.98761221 89.91914402 -0.00000035 -0.07438751
94830000 -0.00000039 -0.09217474 -70.51809258 89.91465302 -70.51809258 89.91465302 -0.00000039 -0.07851923
99820000 -0.00000043 -0.09702501 -70.07265682 89.91016202 -70.07265682 89.91016202 -0.00000043 -0.08265094
104810000 -0.00000047 -0.10187529 -69.64895429 89.90567102 -69.64895429 89.90567102 -0.00000047 -0.08678266
109800000 -0.00000052 -0.10672557 -69.24496250 89.90118003 -69.24496250 89.90118003 -0.00000052 -0.09091438
114790000 -0.00000056 -0.11157584 -68.85892882 89.89668903 -68.85892882 89.89668903 -0.00000056 -0.09504609
119780000 -0.00000061 -0.11642612 -68.48932441 89.89219804 -68.48932441 89.89219804 -0.00000061 -0.09917781
124770000 -0.00000067 -0.12127639 -68.13480777 89.88770704 -68.13480777 89.88770704 -0.00000067 -0.10330953
129760000 -0.00000072 -0.12612666 -67.79419525 89.88321605 -67.79419525 89.88321605 -0.00000072 -0.10744124
134750000 -0.00000078 -0.13097694 -67.46643725 89.87872505 -67.46643725 89.87872505 -0.00000078 -0.11157296
139740000 -0.00000084 -0.13582721 -67.15059872 89.87423406 -67.15059872 89.87423406 -0.00000084 -0.11570467
144730000 -0.00000090 -0.14067748 -66.84584305 89.86974306 -66.84584305 89.86974306 -0.00000090 -0.11983639
149720000 -0.00000096 -0.14552775 -66.55141874 89.86525207 -66.55141874 89.86525207 -0.00000096 -0.12396810
154710000 -0.00000103 -0.15037803 -66.26664824 89.86076108 -66.26664824 89.86076108 -0.00000103 -0.12809982
159700000 -0.00000109 -0.15522830 -65.99091852 89.85627009 -65.99091852 89.85627009 -0.00000109 -0.13223153
164690000 -0.00000116 -0.16007857 -65.72367316 89.85177909 -65.72367316 89.85177909 -0.00000116 -0.13636324
169680000 -0.00000123 -0.16492884 -65.46440558 89.84728810 -65.46440558 89.84728810 -0.00000123 -0.14049496
174670000 -0.00000131 -0.16977910 -65.21265325 89.84279711 -65.21265325 89.84279711 -0.00000131 -0.14462667
179660000 -0.00000138 -0.17462937 -64.96799274 89.83830612 -64.96799274 89.83830612 -0.00000138 -0.14875838
184650000 -0.00000146 -0.17947964 -64.73003542 89.83381513 -64.73003542 89.83381513 -0.00000146 -0.15289009
189640000 -0.00000154 -0.18432991 -64.49842378 89.82932414 -64.49842378 89.82932414 -0.00000154 -0.15702181
194630000 -0.00000162 -0.18918017 -64.27282813 89.82483316 -64.27282813 89.82483316 -0.00000162 -0.16115352
199620000 -0.00000171 -0.19403044 -64.05294386 89.82034217 -64.05294386 89.82034217 -0.00000171 -0.16528523
204610000 -0.00000179 -0.19888070 -63.83848891 89.81585118 -63.83848891 89.81585118 -0.00000179 -0.16941694
209600000 -0.00000188 -0.20373097 -63.62920161 89.81136019 -63.62920161 89.81136019 -0.00000188 -0.17354865
214590000 -0.00000197 -0.20858123 -63.42483877 89.80686921 -63.42483877 89.80686921 -0.00000197 -0.17768035
219580000 -0.00000207 -0.21343149 -63.22517396 89.80237822 -63.22517396 89.80237822 -0.00000207 -0.18181206
224570000 -0.00000216 -0.21828175 -63.02999604 89.79788724 -63.02999604 89.79788724 -0.00000216 -0.18594377
229560000 -0.00000226 -0.22313201 -62.83910777 89.79339626 -62.83910777 89.79339626 -0.00000226 -0.19007548
234550000 -0.00000236 -0.22798227 -62.65232464 89.78890527 -62.65232464 89.78890527 -0.00000236 -0.19420718
239540000 -0.00000246 -0.23283253 -62.46947381 89.78441429 -62.46947381 89.78441429 -0.00000246 -0.19833889
244530000 -0.00000256 -0.23768279 -62.29039311 89.77992331 -62.29039311 89.77992331 -0.00000256 -0.20247059
249520000 -0.00000267 -0.24253305 -62.11493022 89.77543233 -62.11493022 89.77543233 -0.00000267 -0.20660230
254510000 -0.00000278 -0.24738330 -61.94294184 89.77094135 -61.94294184 89.77094135 -0.00000278 -0.21073400
259500000 -0.00000289 -0.25223356 -61.77429306 89.76645037 -61.77429306 89.76645037 -0.00000289 -0.21486571
264490000 -0.00000300 -0.25708381 -61.60885663 89.76195939 -61.60885663 89.76195939 -0.00000300 -0.21899741
269480000 -0.00000311 -0.26193406 -61.44651249 89.75746841 -61.44651249 89.75746841 -0.00000311 -0.22312911
274470000 -0.00000323 -0.26678432 -61.28714714 89.75297744 -61.28714714 89.75297744 -0.00000323 -0.22726081
279460000 -0.00000335 -0.27163457 -61.13065324 89.74848646 -61.13065324 89.74848646 -0.00000335 -0.23139251
284450000 -0.00000347 -0.27648482 -60.97692915 89.74399549 -60.97692915 89.74399549 -0.00000347 -0.23552421
289440000 -0.00000359 -0.28133507 -60.82587852 89.73950451 -60.82587852 89.73950451 -0.00000359 -0.23965591
294430000 -0.00000372 -0.28618531 -60.67740997 89.73501354 -60.67740997 89.73501354 -0.00000372 -0.24378761
299420000 -0.00000384 -0.29103556 -60.53143669 89.73052257 -60.53143669 89.73052257 -0.00000384 -0.24791931
304410000 -0.00000397 -0.29588580 -60.38787620 89.72603159 -60.38787620 89.72603159 -0.00000397 -0.25205101
309400000 -0.00000410 -0.30073605 -60.24665003 89.72154062 -60.24665003 89.72154062 -0.00000410 -0.25618270
314390000 -0.00000424 -0.30558629 -60.10768349 89.71704966 -60.10768349 89.71704966 -0.00000424 -0.26031440
319380000 -0.00000437 -0.31043653 -59.97090540 89.71255869 -59.97090540 89.71255869 -0.00000437 -0.26444609
324370000 -0.00000451 -0.31528677 -59.83624792 89.70806772 -59.83624792 89.70806772 -0.00000451 -0.26857779
329360000 -0.00000465 -0.32013701 -59.70364628 89.70357675 -59.70364628 89.70357675 -0.00000465 -0.27270948
334350000 -0.00000479 -0.32498725 -59.57303867 89.69908579 -59.57303867 89.69908579 -0.00000479 -0.27684117
339340000 -0.00000494 -0.32983749 -59.44436600 89.69459482 -59.44436600 89.69459482 -0.00000494 -0.28097286
344330000 -0.00000508 -0.33468772 -59.31757177 89.69010386 -59.31757177 89.69010386 -0.00000508 -0.28510455
349320000 -0.00000523 -0.33953796 -59.19260193 89.68561290 -59.19260193 89.68561290 -0.00000523 -0.28923624
354310000 -0.00000538 -0.34438819 -59.06940473 89.68112194 -59.06940473 89.68112194 -0.00000538 -0.29336793
359300000 -0.00000553 -0.34923842 -58.94793058 89.67663098 -58.94793058 89.67663098 -0.00000553 -0.29749962
364290000 -0.00000569 -0.35408865 -58.82813195 89.67214002 -58.82813195 89.67214002 -0.00000569 -0.30163131
369280000 -0.00000585 -0.35893888 -58.70996326 89.66764906 -58.70996326 89.66764906 -0.00000585 -0.30576299
374270000 -0.00000600 -0.36378911 -58.59338074 89.66315811 -58.59338074 89.66315811 -0.00000600 -0.30989468
379260000 -0.00000617 -0.36863934 -58.47834237 89.65866715 -58.47834237 89.65866715 -0.00000617 -0.31402636
384250000 -0.00000633 -0.37348956 -58.36480780 89.65417620 -58.36480780 89.65417620 -0.00000633 -0.31815805
389240000 -0.00000649 -0.37833978 -58.25273821 89.64968524 -58.25273821 89.64968524 -0.00000649 -0.32228973
394230000 -0.00000666 -0.38319001 -58.14209628 89.64519429 -58.14209628 89.64519429 -0.00000666 -0.32642141
399220000 -0.00000683 -0.38804023 -58.03284609 89.64070334 -58.03284609 89.64070334 -0.00000683 -0.33055309
404210000 -0.00000700 -0.39289045 -57.92495308 89.63621239 -57.92495308 89.63621239 -0.00000700 -0.33468477
409200000 -0.00000718 -0.39774066 -57.81838392 89.63172144 -57.81838392 89.63172144 -0.00000718 -0.33881645
414190000 -0.00000735 -0.40259088 -57.71310654 89.62723050 -57.71310654 89.62723050 -0.00000735 -0.34294813
419180000 -0.00000753 -0.40744109 -57.60908999 89.62273955 -57.60908999 89.62273955 -0.00000753 -0.34707980
424170000 -0.00000771 -0.41229131 -57.50630443 89.61824861 -57.50630443 89.61824861 -0.00000771 -0.35121148
429160000 -0.00000789 -0.41714152 -57.40472107 89.61375767 -57.40472107 89.61375767 -0.00000789 -0.35534315
434150000 -0.00000808 -0.42199173 -57.30431211 89.60926673 -57.30431211 89.60926673 -0.00000808 -0.35947482
439140000 -0.00000827 -0.42684193 -57.20505071 89.60477579 -57.20505071 89.60477579 -0.00000827 -0.36360650
444130000 -0.00000845 -0.43169214 -57.10691094 89.60028485 -57.10691094 89.60028485 -0.00000845 -0.36773817
449120000 -0.00000865 -0.43654234 -57.00986773 89.59579391 -57.00986773 89.59579391 -0.00000865 -0.37186984
454110000 -0.00000884 -0.44139255 -56.91389685 89.59130297 -56.91389685 89.59130297 -0.00000884 -0.37600151
459100000 -0.00000903 -0.44624275 -56.81897486 89.58681204 -56.81897486 89.58681204 -0.00000903 -0.38013317
464090000 -0.00000923 -0.45109295 -56.72507909 89.58232111 -56.72507909 89.58232111 -0.00000923 -0.38426484
469080000 -0.00000943 -0.45594314 -56.63218758 89.57783018 -56.63218758 89.57783018 -0.00000943 -0.38839651
474070000 -0.00000963 -0.46079334 -56.54027908 89.57333925 -56.54027908 89.57333925 -0.00000963 -0.39252817
479060000 -0.00000984 -0.46564353 -56.44933301 89.56884832 -56.44933301 89.56884832 -0.00000984 -0.39665983
484050000 -0.00001004 -0.47049372 -56.35932942 89.56435739 -56.35932942 89.56435739 -0.00001004 -0.40079149
489040000 -0.00001025 -0.47534391 -56.27024897 89.55986647 -56.27024897 89.55986647 -0.00001025 -0.40492315
494030000 -0.00001046 -0.48019410 -56.18207293 89.55537554 -56.18207293 89.55537554 -0.00001046 -0.40905481
499020000 -0.00001067 -0.48504429 -56.09478312 89.55088462 -56.09478312 89.55088462 -0.00001067 -0.41318647
504010000 -0.00001089 -0.48989447 -56.00836190 89.54639370 -56.00836190 89.54639370 -0.00001089 -0.41731813
509000000 -0.00001110 -0.49474466 -55.92279215 89.54190278 -55.92279215 89.54190278 -0.00001110 -0.42144978
513990000 -0.00001132 -0.49959484 -55.83805727 89.53741186 -55.83805727 89.53741186 -0.00001132 -0.42558144
518980000 -0.00001154 -0.50444502 -55.75414112 89.53292095 -55.75414112 89.53292095 -0.00001154 -0.42971309
523970000 -0.00001177 -0.50929519 -55.67102803 89.52843003 -55.67102803 89.52843003 -0.00001177 -0.43384474
528960000 -0.00001199 -0.51414537 -55.58870278 89.52393912 -55.58870278 89.52393912 -0.00001199 -0.43797639
533950000 -0.00001222 -0.51899554 -55.50715057 89.51944821 -55.50715057 89.51944821 -0.00001222 -0.44210804
538940000 -0.00001245 -0.52384571 -55.42635703 89.51495730 -55.42635703 89.51495730 -0.00001245 -0.44623969
543930000 -0.00001268 -0.52869588 -55.34630817 89.51046639 -55.34630817 89.51046639 -0.00001268 -0.45037134
548920000 -0.00001291 -0.53354605 -55.26699038 89.50597549 -55.26699038 89.50597549 -0.00001291 -0.45450298
553910000 -0.00001315 -0.53839621 -55.18839045 89.50148458 -55.18839045 89.50148458 -0.00001315 -0.45863462
558900000 -0.00001339 -0.54324637 -55.11049548 89.49699368 -55.11049548 89.49699368 -0.00001339 -0.46276627
563890000 -0.00001363 -0.54809653 -55.03329296 89.49250278 -55.03329296 89.49250278 -0.00001363 -0.46689791
568880000 -0.00001387 -0.55294669 -54.95677067 89.48801188 -54.95677067 89.48801188 -0.00001387 -0.47102955
573870000 -0.00001412 -0.55779685 -54.88091674 89.48352098 -54.88091674 89.48352098 -0.00001412 -0.47516118
578860000 -0.00001436 -0.56264700 -54.80571960 89.47903009 -54.80571960 89.47903009 -0.00001436 -0.47929282
583850000 -0.00001461 -0.56749715 -54.73116797 89.47453920 -54.73116797 89.47453920 -0.00001461 -0.48342445
588840000 -0.00001486 -0.57234730 -54.65725086 89.47004830 -54.65725086 89.47004830 -0.00001486 -0.48755609
593830000 -0.00001511 -0.57719745 -54.58395756 89.46555741 -54.58395756 89.46555741 -0.00001511 -0.49168772
598820000 -0.00001537 -0.58204760 -54.51127765 89.46106653 -54.51127765 89.46106653 -0.00001537 -0.49581935
603810000 -0.00001563 -0.58689774 -54.43920092 89.45657564 -54.43920092 89.45657564 -0.00001563 -0.49995098
608800000 -0.00001589 -0.59174788 -54.36771747 89.45208476 -54.36771747 89.45208476 -0.00001589 -0.50408261
613790000 -0.00001615 -0.59659802 -54.29681759 89.44759387 -54.29681759 89.44759387 -0.00001615 -0.50821423
618780000 -0.00001641 -0.60144815 -54.22649185 89.44310299 -54.22649185 89.44310299 -0.00001641 -0.51234586
623770000 -0.00001668 -0.60629829 -54.15673101 89.43861212 -54.15673101 89.43861212 -0.00001668 -0.51647748
628760000 -0.00001694 -0.61114842 -54.08752608 89.43412124 -54.08752608 89.43412124 -0.00001694 -0.52060910
633750000 -0.00001721 -0.61599855 -54.01886827 89.42963037 -54.01886827 89.42963037 -0.00001721 -0.52474072
638740000 -0.00001749 -0.62084867 -53.95074900 89.42513949 -53.95074900 89.42513949 -0.00001749 -0.52887234
643730000 -0.00001776 -0.62569880 -53.88315989 89.42064862 -53.88315989 89.42064862 -0.00001776 -0.53300396
648720000 -0.00001804 -0.63054892 -53.81609274 89.41615776 -53.81609274 89.41615776 -0.00001804 -0.53713557
653710000 -0.00001832 -0.63539904 -53.74953956 89.41166689 -53.74953956 89.41166689 -0.00001832 -0.54126718
658700000 -0.00001860 -0.64024915 -53.68349253 89.40717602 -53.68349253 89.40717602 -0.00001860 -0.54539880
663690000 -0.00001888 -0.64509927 -53.61794402 89.40268516 -53.61794402 89.40268516 -0.00001888 -0.54953041
668680000 -0.00001916 -0.64994938 -53.55288655 89.39819430 -53.55288655 89.39819430 -0.00001916 -0.55366201
673670000 -0.00001945 -0.65479949 -53.48831283 89.39370345 -53.48831283 89.39370345 -0.00001945 -0.55779362
678660000 -0.00001974 -0.65964959 -53.42421571 89.38921259 -53.42421571 89.38921259 -0.00001974 -0.56192523
683650000 -0.00002003 -0.66449970 -53.36058821 89.38472174 -53.36058821 89.38472174 -0.00002003 -0.56605683
688640000 -0.00002033 -0.66934980 -53.29742351 89.38023088 -53.29742351 89.38023088 -0.00002033 -0.57018843
693630000 -0.00002062 -0.67419990 -53.23471491 89.37574004 -53.23471491 89.37574004 -0.00002062 -0.57432003
698620000 -0.00002092 -0.67904999 -53.17245589 89.37124919 -53.17245589 89.37124919 -0.00002092 -0.57845163
703610000 -0.00002122 -0.68390009 -53.11064004 89.36675834 -53.11064004 89.36675834 -0.00002122 -0.58258323
708600000 -0.00002152 -0.68875018 -53.04926109 89.36226750 -53.04926109 89.36226750 -0.00002152 -0.58671482
713590000 -0.00002182 -0.69360027 -52.98831292 89.35777666 -52.98831292 89.35777666 -0.00002182 -0.59084641
718580000 -0.00002213 -0.69845035 -52.92778953 89.35328582 -52.92778953 89.35328582 -0.00002213 -0.59497800
723570000 -0.00002244 -0.70330044 -52.86768503 89.34879499 -52.86768503 89.34879499 -0.00002244 -0.59910959
728560000 -0.00002275 -0.70815052 -52.80799366 89.34430415 -52.80799366 89.34430415 -0.00002275 -0.60324118
733550000 -0.00002306 -0.71300059 -52.74870979 89.33981332 -52.74870979 89.33981332 -0.00002306 -0.60737277
738540000 -0.00002338 -0.71785067 -52.68982790 89.33532249 -52.68982790 89.33532249 -0.00002338 -0.61150435
743530000 -0.00002369 -0.72270074 -52.63134256 89.33083167 -52.63134256 89.33083167 -0.00002369 -0.61563593
748520000 -0.00002401 -0.72755081 -52.57324848 89.32634084 -52.57324848 89.32634084 -0.00002401 -0.61976751
753510000 -0.00002434 -0.73240087 -52.51554046 89.32185002 -52.51554046 89.32185002 -0.00002434 -0.62389909
758500000 -0.00002466 -0.73725094 -52.45821339 89.31735920 -52.45821339 89.31735920 -0.00002466 -0.62803067
763490000 -0.00002498 -0.74210100 -52.40126229 89.31286838 -52.40126229 89.31286838 -0.00002498 -0.63216224
768480000 -0.00002531 -0.74695105 -52.34468225 89.30837757 -52.34468225 89.30837757 -0.00002531 -0.63629381
773470000 -0.00002564 -0.75180111 -52.28846848 89.30388675 -52.28846848 89.30388675 -0.00002564 -0.64042538
778460000 -0.00002597 -0.75665116 -52.23261625 89.29939594 -52.23261625 89.29939594 -0.00002597 -0.64455695
783450000 -0.00002631 -0.76150121 -52.17712096 89.29490514 -52.17712096 89.29490514 -0.00002631 -0.64868852
788440000 -0.00002664 -0.76635125 -52.12197807 89.29041433 -52.12197807 89.29041433 -0.00002664 -0.65282008
793430000 -0.00002698 -0.77120130 -52.06718314 89.28592353 -52.06718314 89.28592353 -0.00002698 -0.65695164
798420000 -0.00002732 -0.77605134 -52.01273179 89.28143273 -52.01273179 89.28143273 -0.00002732 -0.66108321
803410000 -0.00002766 -0.78090137 -51.95861976 89.27694193 -51.95861976 89.27694193 -0.00002766 -0.66521476
808400000 -0.00002801 -0.78575141 -51.90484283 89.27245114 -51.90484283 89.27245114 -0.00002801 -0.66934632
813390000 -0.00002836 -0.79060144 -51.85139689 89.26796034 -51.85139689 89.26796034 -0.00002836 -0.67347788
818380000 -0.00002871 -0.79545146 -51.79827788 89.26346955 -51.79827788 89.26346955 -0.00002871 -0.67760943
823370000 -0.00002906 -0.80030149 -51.74548184 89.25897877 -51.74548184 89.25897877 -0.00002906 -0.68174098
828360000 -0.00002941 -0.80515151 -51.69300485 89.25448798 -51.69300485 89.25448798 -0.00002941 -0.68587253
833350000 -0.00002976 -0.81000153 -51.64084310 89.24999720 -51.64084310 89.24999720 -0.00002976 -0.69000407
838340000 -0.00003012 -0.81485154 -51.58899280 89.24550642 -51.58899280 89.24550642 -0.00003012 -0.69413562
843330000 -0.00003048 -0.81970155 -51.53745028 89.24101564 -51.53745028 89.24101564 -0.00003048 -0.69826716
848320000 -0.00003084 -0.82455156 -51.48621188 89.23652487 -51.48621188 89.23652487 -0.00003084 -0.70239870
853310000 -0.00003121 -0.82940157 -51.43527406 89.23203410 -51.43527406 89.23203410 -0.00003121 -0.70653024
858300000 -0.00003157 -0.83425157 -51.38463330 89.22754333 -51.38463330 89.22754333 -0.00003157 -0.71066177
863290000 -0.00003194 -0.83910157 -51.33428616 89.22305256 -51.33428616 89.22305256 -0.00003194 -0.71479331
868280000 -0.00003231 -0.84395156 -51.28422926 89.21856180 -51.28422926 89.21856180 -0.00003231 -0.71892484
873270000 -0.00003268 -0.84880156 -51.23445927 89.21407104 -51.23445927 89.21407104 -0.00003268 -0.72305637
878260000 -0.00003306 -0.85365154 -51.18497292 89.20958028 -51.18497292 89.20958028 -0.00003306 -0.72718789
883250000 -0.00003344 -0.85850153 -51.13576699 89.20508953 -51.13576699 89.20508953 -0.00003344 -0.73131942
888240000 -0.00003381 -0.86335151 -51.08683833 89.20059877 -51.08683833 89.20059877 -0.00003381 -0.73545094
893230000 -0.00003420 -0.86820149 -51.03818384 89.19610802 -51.03818384 89.19610802 -0.00003420 -0.73958246
898220000 -0.00003458 -0.87305147 -50.98980045 89.19161728 -50.98980045 89.19161728 -0.00003458 -0.74371398
903210000 -0.00003496 -0.87790144 -50.94168516 89.18712653 -50.94168516 89.18712653 -0.00003496 -0.74784550
908200000 -0.00003535 -0.88275141 -50.89383502 89.18263579 -50.89383502 89.18263579 -0.00003535 -0.75197701
913190000 -0.00003574 -0.88760137 -50.84624713 89.17814505 -50.84624713 89.17814505 -0.00003574 -0.75610852
918180000 -0.00003613 -0.89245133 -50.79891862 89.17365432 -50.79891862 89.17365432 -0.00003613 -0.76024003
923170000 -0.00003653 -0.89730129 -50.75184668 89.16916359 -50.75184668 89.16916359 -0.00003653 -0.76437154
928160000 -0.00003692 -0.90215125 -50.70502856 89.16467286 -50.70502856 89.16467286 -0.00003692 -0.76850304
933150000 -0.00003732 -0.90700120 -50.65846152 89.16018213 -50.65846152 89.16018213 -0.00003732 -0.77263454
938140000 -0.00003772 -0.91185115 -50.61214289 89.15569141 -50.61214289 89.15569141 -0.00003772 -0.77676604
943130000 -0.00003812 -0.91670109 -50.56607003 89.15120068 -50.56607003 89.15120068 -0.00003812 -0.78089754
948120000 -0.00003853 -0.92155103 -50.52024036 89.14670997 -50.52024036 89.14670997 -0.00003853 -0.78502903
953110000 -0.00003893 -0.92640097 -50.47465131 89.14221925 -50.47465131 89.14221925 -0.00003893 -0.78916053
958100000 -0.00003934 -0.93125090 -50.42930038 89.13772854 -50.42930038 89.13772854 -0.00003934 -0.79329202
963090000 -0.00003975 -0.93610083 -50.38418508 89.13323783 -50.38418508 89.13323783 -0.00003975 -0.79742351
968080000 -0.00004017 -0.94095076 -50.33930300 89.12874713 -50.33930300 89.12874713 -0.00004017 -0.80155499
973070000 -0.00004058 -0.94580068 -50.29465172 89.12425642 -50.29465172 89.12425642 -0.00004058 -0.80568647
978060000 -0.00004100 -0.95065060 -50.25022889 89.11976572 -50.25022889 89.11976572 -0.00004100 -0.80981795
983050000 -0.00004142 -0.95550051 -50.20603218 89.11527503 -50.20603218 89.11527503 -0.00004142 -0.81394943
988040000 -0.00004184 -0.96035043 -50.16205931 89.11078433 -50.16205931 89.11078433 -0.00004184 -0.81808091
993030000 -0.00004226 -0.96520033 -50.11830801 89.10629364 -50.11830801 89.10629364 -0.00004226 -0.82221238
998020000 -0.00004269 -0.97005024 -50.07477607 89.10180296 -50.07477607 89.10180296 -0.00004269 -0.82634385
1003010000 -0.00004312 -0.97490014 -50.03146130 89.09731227 -50.03146130 89.09731227 -0.00004312 -0.83047532
1008000000 -0.00004355 -0.97975003 -49.98836154 89.09282159 -49.98836154 89.09282159 -0.00004355 -0.83460679
1012990000 -0.00004398 -0.98459993 -49.94547467 89.08833091 -49.94547467 89.08833091 -0.00004398 -0.83873825
1017980000 -0.00004441 -0.98944981 -49.90279860 89.08384024 -49.90279860 89.08384024 -0.00004441 -0.84286971
1022970000 -0.00004485 -0.99429970 -49.86033127 89.07934957 -49.86033127 89.07934957 -0.00004485 -0.84700117
1027960000 -0.00004529 -0.99914958 -49.81807065 89.07485890 -49.81807065 89.07485890 -0.00004529 -0.85113262
1032950000 -0.00004573 -1.00399946 -49.77601473 89.07036823 -49.77601473 89.07036823 -0.00004573 -0.85526408
1037940000 -0.00004617 -1.00884933 -49.73416154 89.06587757 -49.73416154 89.06587757 -0.00004617 -0.85939553
1042930000 -0.00004662 -1.01369920 -49.69250914 89.06138691 -49.69250914 89.06138691 -0.00004662 -0.86352697
1047920000 -0.00004706 -1.01854906 -49.65105561 89.05689626 -49.65105561 89.05689626 -0.00004706 -0.86765842
1052910000 -0.00004751 -1.02339893 -49.60979906 89.05240561 -49.60979906 89.05240561 -0.00004751 -0.87178986
1057900000 -0.00004796 -1.02824878 -49.56873763 89.04791496 -49.56873763 89.04791496 -0.00004796 -0.87592130
1062890000 -0.00004842 -1.03309864 -49.52786948 89.04342431 -49.52786948 89.04342431 -0.00004842 -0.88005274
1067880000 -0.00004887 -1.03794849 -49.48719281 89.03893367 -49.48719281 89.03893367 -0.00004887 -0.88418417
1072870000 -0.00004933 -1.04279833 -49.44670582 89.03444303 -49.44670582 89.03444303 -0.00004933 -0.88831560
1077860000 -0.00004979 -1.04764817 -49.40640676 89.02995240 -49.40640676 89.02995240 -0.00004979 -0.89244703
1082850000 -0.00005025 -1.05249801 -49.36629390 89.02546177 -49.36629390 89.02546177 -0.00005025 -0.89657846
1087840000 -0.00005072 -1.05734784 -49.32636551 89.02097114 -49.32636551 89.02097114 -0.00005072 -0.90070988
1092830000 -0.00005118 -1.06219767 -49.28661992 89.01648051 -49.28661992 89.01648051 -0.00005118 -0.90484130
1097820000 -0.00005165 -1.06704750 -49.24705545 89.01198989 -49.24705545 89.01198989 -0.00005165 -0.90897272
1102810000 -0.00005212 -1.07189732 -49.20767046 89.00749927 -49.20767046 89.00749927 -0.00005212 -0.91310414
1107800000 -0.00005259 -1.07674713 -49.16846334 89.00300866 -49.16846334 89.00300866 -0.00005259 -0.91723555
1112790000 -0.00005307 -1.08159694 -49.12943248 88.99851805 -49.12943248 88.99851805 -0.00005307 -0.92136696
1117780000 -0.00005355 -1.08644675 -49.09057631 88.99402744 -49.09057631 88.99402744 -0.00005355 -0.92549837
1122770000 -0.00005403 -1.09129656 -49.05189328 88.98953684 -49.05189328 88.98953684 -0.00005403 -0.92962977
1127760000 -0.00005451 -1.09614636 -49.01338184 88.98504624 -49.01338184 88.98504624 -0.00005451 -0.93376117
1132750000 -0.00005499 -1.10099615 -48.97504048 88.98055564 -48.97504048 88.98055564 -0.00005499 -0.93789257
1137740000 -0.00005548 -1.10584594 -48.93686770 88.97606505 -48.93686770 88.97606505 -0.00005548 -0.94202397
1142730000 -0.00005596 -1.11069573 -48.89886204 88.97157446 -48.89886204 88.97157446 -0.00005596 -0.94615536
1147720000 -0.00005645 -1.11554551 -48.86102204 88.96708387 -48.86102204 88.96708387 -0.00005645 -0.95028675
1152710000 -0.00005694 -1.12039529 -48.82334625 88.96259329 -48.82334625 88.96259329 -0.00005694 -0.95441814
1157700000 -0.00005744 -1.12524506 -48.78583326 88.95810271 -48.78583326 88.95810271 -0.00005744 -0.95854952
1162690000 -0.00005793 -1.13009483 -48.74848168 88.95361213 -48.74848168 88.95361213 -0.00005793 -0.96268090
1167680000 -0.00005843 -1.13494460 -48.71129011 88.94912156 -48.71129011 88.94912156 -0.00005843 -0.96681228
1172670000 -0.00005893 -1.13979436 -48.67425719 88.94463099 -48.67425719 88.94463099 -0.00005893 -0.97094366
1177660000 -0.00005944 -1.14464411 -48.63738158 88.94014043 -48.63738158 88.94014043 -0.00005944 -0.97507503
1182650000 -0.00005994 -1.14949386 -48.60066194 88.93564987 -48.60066194 88.93564987 -0.00005994 -0.97920640
1187640000 -0.00006045 -1.15434361 -48.56409697 88.93115931 -48.56409697 88.93115931 -0.00006045 -0.98333777
1192630000 -0.00006096 -1.15919335 -48.52768536 88.92666876 -48.52768536 88.92666876 -0.00006096 -0.98746913
1197620000 -0.00006147 -1.16404309 -48.49142584 88.92217821 -48.49142584 88.92217821 -0.00006147 -0.99160049
1202610000 -0.00006198 -1.16889282 -48.45531714 88.91768766 -48.45531714 88.91768766 -0.00006198 -0.99573185
1207600000 -0.00006250 -1.17374255 -48.41935801 88.91319712 -48.41935801 88.91319712 -0.00006250 -0.99986320
1212590000 -0.00006301 -1.17859228 -48.38354722 88.90870658 -48.38354722 88.90870658 -0.00006301 -1.00399455
1217580000 -0.00006353 -1.18344200 -48.34788355 88.90421605 -48.34788355 88.90421605 -0.00006353 -1.00812590
1222570000 -0.00006405 -1.18829171 -48.31236580 88.89972552 -48.31236580 88.89972552 -0.00006405 -1.01225725
1227560000 -0.00006458 -1.19314142 -48.27699277 88.89523499 -48.27699277 88.89523499 -0.00006458 -1.01638859
1232550000 -0.00006510 -1.19799113 -48.24176330 88.89074447 -48.24176330 88.89074447 -0.00006510 -1.02051993
1237540000 -0.00006563 -1.20284083 -48.20667623 88.88625395 -48.20667623 88.88625395 -0.00006563 -1.02465127
1242530000 -0.00006616 -1.20769053 -48.17173041 88.88176344 -48.17173041 88.88176344 -0.00006616 -1.02878260
1247520000 -0.00006670 -1.21254022 -48.13692470 88.87727293 -48.13692470 88.87727293 -0.00006670 -1.03291393
1252510000 -0.00006723 -1.21738990 -48.10225799 88.87278242 -48.10225799 88.87278242 -0.00006723 -1.03704526
1257500000 -0.00006777 -1.22223959 -48.06772918 88.86829192 -48.06772918 88.86829192 -0.00006777 -1.04117658
1262490000 -0.00006831 -1.22708926 -48.03333717 88.86380142 -48.03333717 88.86380142 -0.00006831 -1.04530790
1267480000 -0.00006885 -1.23193894 -47.99908088 88.85931092 -47.99908088 88.85931092 -0.00006885 -1.04943922
1272470000 -0.00006939 -1.23678860 -47.96495924 88.85482043 -47.96495924 88.85482043 -0.00006939 -1.05357053
1277460000 -0.00006993 -1.24163827 -47.93097121 88.85032994 -47.93097121 88.85032994 -0.00006993 -1.05770184
1282450000 -0.00007048 -1.24648793 -47.89711574 88.84583946 -47.89711574 88.84583946 -0.00007048 -1.06183315
1287440000 -0.00007103 -1.25133758 -47.86339180 88.84134898 -47.86339180 88.84134898 -0.00007103 -1.06596445
1292430000 -0.00007158 -1.25618723 -47.82979838 88.83685851 -47.82979838 88.83685851 -0.00007158 -1.07009576
1297420000 -0.00007214 -1.26103687 -47.79633446 88.83236804 -47.79633446 88.83236804 -0.00007214 -1.07422705
1302410000 -0.00007269 -1.26588651 -47.76299906 88.82787757 -47.76299906 88.82787757 -0.00007269 -1.07835835
1307400000 -0.00007325 -1.27073614 -47.72979119 88.82338711 -47.72979119 88.82338711 -0.00007325 -1.08248964
1312390000 -0.00007381 -1.27558577 -47.69670988 88.81889665 -47.69670988 88.81889665 -0.00007381 -1.08662093
1317380000 -0.00007437 -1.28043540 -47.66375417 88.81440619 -47.66375417 88.81440619 -0.00007437 -1.09075221
1322370000 -0.00007494 -1.28528502 -47.63092311 88.80991574 -47.63092311 88.80991574 -0.00007494 -1.09488350
1327360000 -0.00007550 -1.29013463 -47.59821576 88.80542530 -47.59821576 88.80542530 -0.00007550 -1.09901477
1332350000 -0.00007607 -1.29498424 -47.56563120 88.80093486 -47.56563120 88.80093486 -0.00007607 -1.10314605
1337340000 -0.00007664 -1.29983384 -47.53316850 88.79644442 -47.53316850 88.79644442 -0.00007664 -1.10727732
1342330000 -0.00007722 -1.30468344 -47.50082676 88.79195398 -47.50082676 88.79195398 -0.00007722 -1.11140859
1347320000 -0.00007779 -1.30953303 -47.46860508 88.78746356 -47.46860508 88.78746356 -0.00007779 -1.11553985
1352310000 -0.00007837 -1.31438262 -47.43650257 88.78297313 -47.43650257 88.78297313 -0.00007837 -1.11967112
1357300000 -0.00007895 -1.31923221 -47.40451836 88.77848271 -47.40451836 88.77848271 -0.00007895 -1.12380237
1362290000 -0.00007953 -1.32408178 -47.37265157 88.77399229 -47.37265157 88.77399229 -0.00007953 -1.12793363
1367280000 -0.00008011 -1.32893136 -47.34090136 88.76950188 -47.34090136 88.76950188 -0.00008011 -1.13206488
1372270000 -0.00008070 -1.33378093 -47.30926686 88.76501147 -47.30926686 88.76501147 -0.00008070 -1.13619613
1377260000 -0.00008129 -1.33863049 -47.27774725 88.76052107 -47.27774725 88.76052107 -0.00008129 -1.14032737
1382250000 -0.00008188 -1.34348005 -47.24634168 88.75603067 -47.24634168 88.75603067 -0.00008188 -1.14445861
1387240000 -0.00008247 -1.34832960 -47.21504934 88.75154028 -47.21504934 88.75154028 -0.00008247 -1.14858985
1392230000 -0.00008306 -1.35317915 -47.18386942 88.74704988 -47.18386942 88.74704988 -0.00008306 -1.15272109
1397220000 -0.00008366 -1.35802869 -47.15280111 88.74255950 -47.15280111 88.74255950 -0.00008366 -1.15685232
1402210000 -0.00008426 -1.36287822 -47.12184361 88.73806912 -47.12184361 88.73806912 -0.00008426 -1.16098354
1407200000 -0.00008486 -1.36772775 -47.09099614 88.73357874 -47.09099614 88.73357874 -0.00008486 -1.16511477
1412190000 -0.00008546 -1.37257728 -47.06025792 88.72908837 -47.06025792 88.72908837 -0.00008546 -1.16924599
1417180000 -0.00008606 -1.37742680 -47.02962818 88.72459800 -47.02962818 88.72459800 -0.00008606 -1.17337720
1422170000 -0.00008667 -1.38227632 -46.99910615 88.72010763 -46.99910615 88.72010763 -0.00008667 -1.17750842
1427160000 -0.00008728 -1.38712583 -46.96869108 88.71561727 -46.96869108 88.71561727 -0.00008728 -1.18163963
1432150000 -0.00008789 -1.39197533 -46.93838223 88.71112692 -46.93838223 88.71112692 -0.00008789 -1.18577083
1437140000 -0.00008851 -1.39682483 -46.90817886 88.70663657 -46.90817886 88.70663657 -0.00008851 -1.18990203
1442130000 -0.00008912 -1.40167432 -46.87808023 88.70214622 -46.87808023 88.70214622 -0.00008912 -1.19403323
1447120000 -0.00008974 -1.40652381 -46.84808563 88.69765588 -46.84808563 88.69765588 -0.00008974 -1.19816443
1452110000 -0.00009036 -1.41137329 -46.81819433 88.69316554 -46.81819433 88.69316554 -0.00009036 -1.20229562
1457100000 -0.00009098 -1.41622277 -46.78840563 88.68867521 -46.78840563 88.68867521 -0.00009098 -1.20642681
1462090000 -0.00009160 -1.42107224 -46.75871882 88.68418488 -46.75871882 88.68418488 -0.00009160 -1.21055799
1467080000 -0.00009223 -1.42592171 -46.72913322 88.67969456 -46.72913322 88.67969456 -0.00009223 -1.21468917
1472070000 -0.00009286 -1.43077117 -46.69964813 88.67520424 -46.69964813 88.67520424 -0.00009286 -1.21882035
1477060000 -0.00009349 -1.43562062 -46.67026287 88.67071393 -46.67026287 88.67071393 -0.00009349 -1.22295152
1482050000 -0.00009412 -1.44047007 -46.64097678 88.66622362 -46.64097678 88.66622362 -0.00009412 -1.22708269
1487040000 -0.00009476 -1.44531952 -46.61178919 88.66173331 -46.61178919 88.66173331 -0.00009476 -1.23121386
1492030000 -0.00009539 -1.45016895 -46.58269942 88.65724301 -46.58269942 88.65724301 -0.00009539 -1.23534502
1497020000 -0.00009603 -1.45501839 -46.55370685 88.65275272 -46.55370685 88.65275272 -0.00009603 -1.23947617
1502010000 -0.00009667 -1.45986781 -46.52481080 88.64826243 -46.52481080 88.64826243 -0.00009667 -1.24360733
1507000000 -0.00009732 -1.46471723 -46.49601065 88.64377214 -46.49601065 88.64377214 -0.00009732 -1.24773848
1511990000 -0.00009796 -1.46956665 -46.46730577 88.63928186 -46.46730577 88.63928186 -0.00009796 -1.25186963
1516980000 -0.00009861 -1.47441606 -46.43869552 88.63479159 -46.43869552 88.63479159 -0.00009861 -1.25600077
1521970000 -0.00009926 -1.47926546 -46.41017928 88.63030131 -46.41017928 88.63030131 -0.00009926 -1.26013191
1526960000 -0.00009991 -1.48411486 -46.38175644 88.62581105 -46.38175644 88.62581105 -0.00009991 -1.26426304
1531950000 -0.00010056 -1.48896425 -46.35342638 88.62132079 -46.35342638 88.62132079 -0.00010056 -1.26839418
1536940000 -0.00010122 -1.49381364 -46.32518852 88.61683053 -46.32518852 88.61683053 -0.00010122 -1.27252530
1541930000 -0.00010188 -1.49866302 -46.29704223 88.61234028 -46.29704223 88.61234028 -0.00010188 -1.27665643
1546920000 -0.00010254 -1.50351240 -46.26898695 88.60785003 -46.26898695 88.60785003 -0.00010254 -1.28078755
1551910000 -0.00010320 -1.50836176 -46.24102207 88.60335979 -46.24102207 88.60335979 -0.00010320 -1.28491866
1556900000 -0.00010387 -1.51321113 -46.21314703 88.59886955 -46.21314703 88.59886955 -0.00010387 -1.28904978
1561890000 -0.00010453 -1.51806048 -46.18536124 88.59437932 -46.18536124 88.59437932 -0.00010453 -1.29318088
1566880000 -0.00010520 -1.52290984 -46.15766413 88.58988909 -46.15766413 88.58988909 -0.00010520 -1.29731199
1571870000 -0.00010587 -1.52775918 -46.13005515 88.58539887 -46.13005515 88.58539887 -0.00010587 -1.30144309
1576860000 -0.00010655 -1.53260852 -46.10253373 88.58090865 -46.10253373 88.58090865 -0.00010655 -1.30557418
1581850000 -0.00010722 -1.53745785 -46.07509932 88.57641843 -46.07509932 88.57641843 -0.00010722 -1.30970528
1586840000 -0.00010790 -1.54230718 -46.04775138 88.57192823 -46.04775138 88.57192823 -0.00010790 -1.31383637
1591830000 -0.00010858 -1.54715650 -46.02048935 88.56743802 -46.02048935 88.56743802 -0.00010858 -1.31796745
1596820000 -0.00010926 -1.55200582 -45.99331270 88.56294783 -45.99331270 88.56294783 -0.00010926 -1.32209853
1601810000 -0.00010994 -1.55685513 -45.96622091 88.55845763 -45.96622091 88.55845763 -0.00010994 -1.32622961
1606800000 -0.00011063 -1.56170443 -45.93921343 88.55396744 -45.93921343 88.55396744 -0.00011063 -1.33036068
1611790000 -0.00011132 -1.56655373 -45.91228976 88.54947726 -45.91228976 88.54947726 -0.00011132 -1.33449175
1616780000 -0.00011201 -1.57140302 -45.88544936 88.54498708 -45.88544936 88.54498708 -0.00011201 -1.33862281
1621770000 -0.00011270 -1.57625230 -45.85869174 88.54049691 -45.85869174 88.54049691 -0.00011270 -1.34275387
1626760000 -0.00011339 -1.58110158 -45.83201637 88.53600674 -45.83201637 88.53600674 -0.00011339 -1.34688493
1631750000 -0.00011409 -1.58595086 -45.80542276 88.53151658 -45.80542276 88.53151658 -0.00011409 -1.35101598
1636740000 -0.00011479 -1.59080012 -45.77891041 88.52702642 -45.77891041 88.52702642 -0.00011479 -1.35514703
1641730000 -0.00011549 -1.59564938 -45.75247881 88.52253627 -45.75247881 88.52253627 -0.00011549 -1.35927807
1646720000 -0.00011619 -1.60049864 -45.72612749 88.51804612 -45.72612749 88.51804612 -0.00011619 -1.36340911
1651710000 -0.00011690 -1.60534788 -45.69985596 88.51355598 -45.69985596 88.51355598 -0.00011690 -1.36754015
1656700000 -0.00011760 -1.61019713 -45.67366373 88.50906585 -45.67366373 88.50906585 -0.00011760 -1.37167118
1661690000 -0.00011831 -1.61504636 -45.64755033 88.50457571 -45.64755033 88.50457571 -0.00011831 -1.37580221
1666680000 -0.00011903 -1.61989559 -45.62151529 88.50008559 -45.62151529 88.50008559 -0.00011903 -1.37993323
1671670000 -0.00011974 -1.62474481 -45.59555813 88.49559547 -45.59555813 88.49559547 -0.00011974 -1.38406425
1676660000 -0.00012045 -1.62959403 -45.56967840 88.49110535 -45.56967840 88.49110535 -0.00012045 -1.38819527
1681650000 -0.00012117 -1.63444324 -45.54387563 88.48661524 -45.54387563 88.48661524 -0.00012117 -1.39232628
1686640000 -0.00012189 -1.63929244 -45.51814937 88.48212514 -45.51814937 88.48212514 -0.00012189 -1.39645728
1691630000 -0.00012261 -1.64414164 -45.49249917 88.47763504 -45.49249917 88.47763504 -0.00012261 -1.40058828
1696620000 -0.00012334 -1.64899083 -45.46692457 88.47314494 -45.46692457 88.47314494 -0.00012334 -1.40471928
1701610000 -0.00012406 -1.65384002 -45.44142513 88.46865485 -45.44142513 88.46865485 -0.00012406 -1.40885028
1706600000 -0.00012479 -1.65868919 -45.41600042 88.46416477 -45.41600042 88.46416477 -0.00012479 -1.41298127
1711590000 -0.00012552 -1.66353837 -45.39065000 88.45967469 -45.39065000 88.45967469 -0.00012552 -1.41711225
1716580000 -0.00012626 -1.66838753 -45.36537344 88.45518462 -45.36537344 88.45518462 -0.00012626 -1.42124323
1721570000 -0.00012699 -1.67323669 -45.34017030 88.45069455 -45.34017030 88.45069455 -0.00012699 -1.42537421
1726560000 -0.00012773 -1.67808584 -45.31504016 88.44620449 -45.31504016 88.44620449 -0.00012773 -1.42950518
1731550000 -0.00012847 -1.68293499 -45.28998260 88.44171443 -45.28998260 88.44171443 -0.00012847 -1.43363615
1736540000 -0.00012921 -1.68778413 -45.26499720 88.43722438 -45.26499720 88.43722438 -0.00012921 -1.43776711
1741530000 -0.00012995 -1.69263326 -45.24008356 88.43273433 -45.24008356 88.43273433 -0.00012995 -1.44189807
1746520000 -0.00013070 -1.69748238 -45.21524125 88.42824429 -45.21524125 88.42824429 -0.00013070 -1.44602903
1751510000 -0.00013144 -1.70233150 -45.19046988 88.42375426 -45.19046988 88.42375426 -0.00013144 -1.45015998
1756500000 -0.00013219 -1.70718062 -45.16576903 88.41926423 -45.16576903 88.41926423 -0.00013219 -1.45429092
1761490000 -0.00013295 -1.71202972 -45.14113831 88.41477421 -45.14113831 88.41477421 -0.00013295 -1.45842186
1766480000 -0.00013370 -1.71687882 -45.11657733 88.41028419 -45.11657733 88.41028419 -0.00013370 -1.46255280
1771470000 -0.00013446 -1.72172791 -45.09208568 88.40579418 -45.09208568 88.40579418 -0.00013446 -1.46668373
1776460000 -0.00013521 -1.72657700 -45.06766298 88.40130417 -45.06766298 88.40130417 -0.00013521 -1.47081466
1781450000 -0.00013598 -1.73142608 -45.04330884 88.39681417 -45.04330884 88.39681417 -0.00013598 -1.47494559
1786440000 -0.00013674 -1.73627515 -45.01902288 88.39232417 -45.01902288 88.39232417 -0.00013674 -1.47907651
1791430000 -0.00013750 -1.74112422 -44.99480472 88.38783418 -44.99480472 88.38783418 -0.00013750 -1.48320742
1796420000 -0.00013827 -1.74597328 -44.97065398 88.38334420 -44.97065398 88.38334420 -0.00013827 -1.48733833
1801410000 -0.00013904 -1.75082233 -44.94657029 88.37885422 -44.94657029 88.37885422 -0.00013904 -1.49146924
1806400000 -0.00013981 -1.75567137 -44.92255328 88.37436424 -44.92255328 88.37436424 -0.00013981 -1.49560014
1811390000 -0.00014058 -1.76052041 -44.89860257 88.36987428 -44.89860257 88.36987428 -0.00014058 -1.49973104
1816380000 -0.00014136 -1.76536944 -44.87471781 88.36538431 -44.87471781 88.36538431 -0.00014136 -1.50386193
1821370000 -0.00014214 -1.77021847 -44.85089863 88.36089436 -44.85089863 88.36089436 -0.00014214 -1.50799282
1826360000 -0.00014291 -1.77506749 -44.82714467 88.35640441 -44.82714467 88.35640441 -0.00014291 -1.51212370
1831350000 -0.00014370 -1.77991650 -44.80345558 88.35191446 -44.80345558 88.35191446 -0.00014370 -1.51625458
1836340000 -0.00014448 -1.78476550 -44.77983101 88.34742452 -44.77983101 88.34742452 -0.00014448 -1.52038545
1841330000 -0.00014527 -1.78961450 -44.75627060 88.34293459 -44.75627060 88.34293459 -0.00014527 -1.52451632
1846320000 -0.00014605 -1.79446349 -44.73277402 88.33844466 -44.73277402 88.33844466 -0.00014605 -1.52864719
1851310000 -0.00014684 -1.79931247 -44.70934090 88.33395474 -44.70934090 88.33395474 -0.00014684 -1.53277805
1856300000 -0.00014764 -1.80416145 -44.68597092 88.32946483 -44.68597092 88.32946483 -0.00014764 -1.53690890
1861290000 -0.00014843 -1.80901042 -44.66266373 88.32497492 -44.66266373 88.32497492 -0.00014843 -1.54103975
1866280000 -0.00014923 -1.81385938 -44.63941899 88.32048501 -44.63941899 88.32048501 -0.00014923 -1.54517060
1871270000 -0.00015003 -1.81870833 -44.61623639 88.31599511 -44.61623639 88.31599511 -0.00015003 -1.54930144
1876260000 -0.00015083 -1.82355728 -44.59311557 88.31150522 -44.59311557 88.31150522 -0.00015083 -1.55343228
1881250000 -0.00015163 -1.82840622 -44.57005622 88.30701534 -44.57005622 88.30701534 -0.00015163 -1.55756311
1886240000 -0.00015244 -1.83325515 -44.54705801 88.30252545 -44.54705801 88.30252545 -0.00015244 -1.56169394
1891230000 -0.00015324 -1.83810408 -44.52412061 88.29803558 -44.52412061 88.29803558 -0.00015324 -1.56582476
1896220000 -0.00015405 -1.84295300 -44.50124372 88.29354571 -44.50124372 88.29354571 -0.00015405 -1.56995558
1901210000 -0.00015486 -1.84780191 -44.47842700 88.28905585 -44.47842700 88.28905585 -0.00015486 -1.57408639
1906200000 -0.00015568 -1.85265082 -44.45567014 88.28456599 -44.45567014 88.28456599 -0.00015568 -1.57821720
1911190000 -0.00015649 -1.85749971 -44.43297283 88.28007614 -44.43297283 88.28007614 -0.00015649 -1.58234800
1916180000 -0.00015731 -1.86234860 -44.41033477 88.27558630 -44.41033477 88.27558630 -0.00015731 -1.58647880
1921170000 -0.00015813 -1.86719749 -44.38775563 88.27109646 -44.38775563 88.27109646 -0.00015813 -1.59060959
1926160000 -0.00015895 -1.87204636 -44.36523512 88.26660663 -44.36523512 88.26660663 -0.00015895 -1.59474038
1931150000 -0.00015978 -1.87689523 -44.34277294 88.26211680 -44.34277294 88.26211680 -0.00015978 -1.59887117
1936140000 -0.00016060 -1.88174409 -44.32036877 88.25762698 -44.32036877 88.25762698 -0.00016060 -1.60300195
1941130000 -0.00016143 -1.88659295 -44.29802233 88.25313717 -44.29802233 88.25313717 -0.00016143 -1.60713272
1946120000 -0.00016226 -1.89144179 -44.27573332 88.24864736 -44.27573332 88.24864736 -0.00016226 -1.61126349
1951110000 -0.00016310 -1.89629063 -44.25350144 88.24415756 -44.25350144 88.24415756 -0.00016310 -1.61539426
1956100000 -0.00016393 -1.90113947 -44.23132641 88.23966776 -44.23132641 88.23966776 -0.00016393 -1.61952502
1961090000 -0.00016477 -1.90598829 -44.20920792 88.23517797 -44.20920792 88.23517797 -0.00016477 -1.62365577
1966080000 -0.00016561 -1.91083711 -44.18714570 88.23068819 -44.18714570 88.23068819 -0.00016561 -1.62778652
1971070000 -0.00016645 -1.91568592 -44.16513946 88.22619841 -44.16513946 88.22619841 -0.00016645 -1.63191727
1976060000 -0.00016729 -1.92053472 -44.14318891 88.22170864 -44.14318891 88.22170864 -0.00016729 -1.63604801
1981050000 -0.00016814 -1.92538351 -44.12129379 88.21721887 -44.12129379 88.21721887 -0.00016814 -1.64017874
1986040000 -0.00016898 -1.93023230 -44.09945380 88.21272911 -44.09945380 88.21272911 -0.00016898 -1.64430947
1991030000 -0.00016983 -1.93508108 -44.07766867 88.20823936 -44.07766867 88.20823936 -0.00016983 -1.64844020
1996020000 -0.00017069 -1.93992985 -44.05593812 88.20374961 -44.05593812 88.20374961 -0.00017069 -1.65257092
2001010000 -0.00017154 -1.94477862 -44.03426189 88.19925988 -44.03426189 88.19925988 -0.00017154 -1.65670163
2006000000 -0.00017240 -1.94962737 -44.01263971 88.19477014 -44.01263971 88.19477014 -0.00017240 -1.66083234
2010990000 -0.00017326 -1.95447612 -43.99107129 88.19028041 -43.99107129 88.19028041 -0.00017326 -1.66496305
2015980000 -0.00017412 -1.95932486 -43.96955639 88.18579069 -43.96955639 88.18579069 -0.00017412 -1.66909375
2020970000 -0.00017498 -1.96417360 -43.94809473 88.18130098 -43.94809473 88.18130098 -0.00017498 -1.67322444
2025960000 -0.00017584 -1.96902232 -43.92668605 88.17681127 -43.92668605 88.17681127 -0.00017584 -1.67735513
2030950000 -0.00017671 -1.97387104 -43.90533010 88.17232157 -43.90533010 88.17232157 -0.00017671 -1.68148582
2035940000 -0.00017758 -1.97871975 -43.88402661 88.16783187 -43.88402661 88.16783187 -0.00017758 -1.68561650
2040930000 -0.00017845 -1.98356846 -43.86277532 88.16334218 -43.86277532 88.16334218 -0.00017845 -1.68974717
2045920000 -0.00017932 -1.98841715 -43.84157598 88.15885250 -43.84157598 88.15885250 -0.00017932 -1.69387784
2050910000 -0.00018020 -1.99326584 -43.82042834 88.15436282 -43.82042834 88.15436282 -0.00018020 -1.69800851
2055900000 -0.00018108 -1.99811452 -43.79933215 88.14987316 -43.79933215 88.14987316 -0.00018108 -1.70213917
2060890000 -0.00018196 -2.00296319 -43.77828716 88.14538349 -43.77828716 88.14538349 -0.00018196 -1.70626982
2065880000 -0.00018284 -2.00781186 -43.75729311 88.14089383 -43.75729311 88.14089383 -0.00018284 -1.71040047
2070870000 -0.00018372 -2.01266052 -43.73634977 88.13640418 -43.73634977 88.13640418 -0.00018372 -1.71453112
2075860000 -0.00018461 -2.01750916 -43.71545689 88.13191454 -43.71545689 88.13191454 -0.00018461 -1.71866175
2080850000 -0.00018549 -2.02235781 -43.69461423 88.12742490 -43.69461423 88.12742490 -0.00018549 -1.72279239
2085840000 -0.00018639 -2.02720644 -43.67382155 88.12293527 -43.67382155 88.12293527 -0.00018639 -1.72692302
2090830000 -0.00018728 -2.03205506 -43.65307860 88.11844565 -43.65307860 88.11844565 -0.00018728 -1.73105364
2095820000 -0.00018817 -2.03690368 -43.63238516 88.11395603 -43.63238516 88.11395603 -0.00018817 -1.73518426
2100810000 -0.00018907 -2.04175229 -43.61174099 88.10946642 -43.61174099 88.10946642 -0.00018907 -1.73931487
2105800000 -0.00018997 -2.04660089 -43.59114585 88.10497682 -43.59114585 88.10497682 -0.00018997 -1.74344548
2110790000 -0.00019087 -2.05144949 -43.57059951 88.10048722 -43.57059951 88.10048722 -0.00019087 -1.74757608
2115780000 -0.00019177 -2.05629807 -43.55010174 88.09599763 -43.55010174 88.09599763 -0.00019177 -1.75170667
2120770000 -0.00019268 -2.06114665 -43.52965231 88.09150804 -43.52965231 88.09150804 -0.00019268 -1.75583727
2125760000 -0.00019358 -2.06599522 -43.50925100 88.08701846 -43.50925100 88.08701846 -0.00019358 -1.75996785
2130750000 -0.00019449 -2.07084378 -43.48889757 88.08252889 -43.48889757 88.08252889 -0.00019449 -1.76409843
2135740000 -0.00019540 -2.07569233 -43.46859181 88.07803933 -43.46859181 88.07803933 -0.00019540 -1.76822901
2140730000 -0.00019632 -2.08054088 -43.44833350 88.07354977 -43.44833350 88.07354977 -0.00019632 -1.77235958
2145720000 -0.00019723 -2.08538942 -43.42812241 88.06906022 -43.42812241 88.06906022 -0.00019723 -1.77649014
2150710000 -0.00019815 -2.09023794 -43.40795832 88.06457068 -43.40795832 88.06457068 -0.00019815 -1.78062070
2155700000 -0.00019907 -2.09508647 -43.38784102 88.06008114 -43.38784102 88.06008114 -0.00019907 -1.78475126
2160690000 -0.00019999 -2.09993498 -43.36777029 88.05559161 -43.36777029 88.05559161 -0.00019999 -1.78888180
2165680000 -0.00020092 -2.10478348 -43.34774591 88.05110209 -43.34774591 88.05110209 -0.00020092 -1.79301235
2170670000 -0.00020184 -2.10963198 -43.32776767 88.04661257 -43.32776767 88.04661257 -0.00020184 -1.79714288
2175660000 -0.00020277 -2.11448047 -43.30783536 88.04212306 -43.30783536 88.04212306 -0.00020277 -1.80127342
2180650000 -0.00020370 -2.11932895 -43.28794877 88.03763355 -43.28794877 88.03763355 -0.00020370 -1.80540394
2185640000 -0.00020464 -2.12417742 -43.26810770 88.03314406 -43.26810770 88.03314406 -0.00020464 -1.80953446
2190630000 -0.00020557 -2.12902588 -43.24831192 88.02865457 -43.24831192 88.02865457 -0.00020557 -1.81366498
2195620000 -0.00020651 -2.13387434 -43.22856124 88.02416509 -43.22856124 88.02416509 -0.00020651 -1.81779549
2200610000 -0.00020745 -2.13872278 -43.20885546 88.01967561 -43.20885546 88.01967561 -0.00020745 -1.82192599
2205600000 -0.00020839 -2.14357122 -43.18919436 88.01518614 -43.18919436 88.01518614 -0.00020839 -1.82605649
2210590000 -0.00020933 -2.14841965 -43.16957775 88.01069668 -43.16957775 88.01069668 -0.00020933 -1.83018699
2215580000 -0.00021028 -2.15326808 -43.15000543 88.00620722 -43.15000543 88.00620722 -0.00021028 -1.83431748
2220570000 -0.00021123 -2.15811649 -43.13047719 88.00171778 -43.13047719 88.00171778 -0.00021123 -1.83844796
2225560000 -0.00021218 -2.16296489 -43.11099285 87.99722834 -43.11099285 87.99722834 -0.00021218 -1.84257844
2230550000 -0.00021313 -2.16781329 -43.09155220 87.99273890 -43.09155220 87.99273890 -0.00021313 -1.84670891
2235540000 -0.00021408 -2.17266168 -43.07215504 87.98824947 -43.07215504 87.98824947 -0.00021408 -1.85083937
2240530000 -0.00021504 -2.17751006 -43.05280119 87.98376005 -43.05280119 87.98376005 -0.00021504 -1.85496983
2245520000 -0.00021600 -2.18235843 -43.03349046 87.97927064 -43.03349046 87.97927064 -0.00021600 -1.85910029
2250510000 -0.00021696 -2.18720679 -43.01422264 87.97478124 -43.01422264 87.97478124 -0.00021696 -1.86323074
2255500000 -0.00021792 -2.19205515 -42.99499755 87.97029184 -42.99499755 87.97029184 -0.00021792 -1.86736118
2260490000 -0.00021888 -2.19690349 -42.97581501 87.96580245 -42.97581501 87.96580245 -0.00021888 -1.87149162
2265480000 -0.00021985 -2.20175183 -42.95667482 87.96131306 -42.95667482 87.96131306 -0.00021985 -1.87562205
2270470000 -0.00022082 -2.20660016 -42.93757680 87.95682368 -42.93757680 87.95682368 -0.00022082 -1.87975247
2275460000 -0.00022179 -2.21144848 -42.91852076 87.95233431 -42.91852076 87.95233431 -0.00022179 -1.88388290
2280450000 -0.00022276 -2.21629679 -42.89950652 87.94784495 -42.89950652 87.94784495 -0.00022276 -1.88801331
2285440000 -0.00022374 -2.22114509 -42.88053389 87.94335559 -42.88053389 87.94335559 -0.00022374 -1.89214372
2290430000 -0.00022472 -2.22599338 -42.86160270 87.93886625 -42.86160270 87.93886625 -0.00022472 -1.89627412
2295420000 -0.00022570 -2.23084167 -42.84271277 87.93437690 -42.84271277 87.93437690 -0.00022570 -1.90040452
2300410000 -0.00022668 -2.23568995 -42.82386391 87.92988757 -42.82386391 87.92988757 -0.00022668 -1.90453491
2305400000 -0.00022766 -2.24053821 -42.80505595 87.92539824 -42.80505595 87.92539824 -0.00022766 -1.90866530
2310390000 -0.00022865 -2.24538647 -42.78628871 87.92090892 -42.78628871 87.92090892 -0.00022865 -1.91279568
2315380000 -0.00022964 -2.25023472 -42.76756202 87.91641961 -42.76756202 87.91641961 -0.00022964 -1.91692605
2320370000 -0.00023063 -2.25508297 -42.74887570 87.91193031 -42.74887570 87.91193031 -0.00023063 -1.92105642
2325360000 -0.00023162 -2.25993120 -42.73022958 87.90744101 -42.73022958 87.90744101 -0.00023162 -1.92518678
2330350000 -0.00023261 -2.26477942 -42.71162348 87.90295172 -42.71162348 87.90295172 -0.00023261 -1.92931714
2335340000 -0.00023361 -2.26962764 -42.69305724 87.89846243 -42.69305724 87.89846243 -0.00023361 -1.93344749
2340330000 -0.00023461 -2.27447585 -42.67453068 87.89397316 -42.67453068 87.89397316 -0.00023461 -1.93757784
2345320000 -0.00023561 -2.27932404 -42.65604363 87.88948389 -42.65604363 87.88948389 -0.00023561 -1.94170818
2350310000 -0.00023661 -2.28417223 -42.63759594 87.88499463 -42.63759594 87.88499463 -0.00023661 -1.94583851
2355300000 -0.00023762 -2.28902041 -42.61918742 87.88050537 -42.61918742 87.88050537 -0.00023762 -1.94996884
2360290000 -0.00023862 -2.29386858 -42.60081793 87.87601613 -42.60081793 87.87601613 -0.00023862 -1.95409916
2365280000 -0.00023963 -2.29871674 -42.58248728 87.87152689 -42.58248728 87.87152689 -0.00023963 -1.95822948
2370270000 -0.00024064 -2.30356490 -42.56419532 87.86703766 -42.56419532 87.86703766 -0.00024064 -1.96235979
2375260000 -0.00024166 -2.30841304 -42.54594188 87.86254843 -42.54594188 87.86254843 -0.00024166 -1.96649009
2380250000 -0.00024267 -2.31326118 -42.52772680 87.85805922 -42.52772680 87.85805922 -0.00024267 -1.97062039
2385240000 -0.00024369 -2.31810930 -42.50954993 87.85357001 -42.50954993 87.85357001 -0.00024369 -1.97475068
2390230000 -0.00024471 -2.32295742 -42.49141110 87.84908081 -42.49141110 87.84908081 -0.00024471 -1.97888097
2395220000 -0.00024573 -2.32780553 -42.47331016 87.84459161 -42.47331016 87.84459161 -0.00024573 -1.98301125
2400210000 -0.00024676 -2.33265363 -42.45524694 87.84010243 -42.45524694 87.84010243 -0.00024676 -1.98714152
2405200000 -0.00024778 -2.33750172 -42.43722129 87.83561325 -42.43722129 87.83561325 -0.00024778 -1.99127179
2410190000 -0.00024881 -2.34234980 -42.41923305 87.83112408 -42.41923305 87.83112408 -0.00024881 -1.99540205
2415180000 -0.00024984 -2.34719787 -42.40128208 87.82663491 -42.40128208 87.82663491 -0.00024984 -1.99953231
2420170000 -0.00025088 -2.35204593 -42.38336821 87.82214576 -42.38336821 87.82214576 -0.00025088 -2.00366256
2425160000 -0.00025191 -2.35689398 -42.36549129 87.81765661 -42.36549129 87.81765661 -0.00025191 -2.00779280
2430150000 -0.00025295 -2.36174203 -42.34765118 87.81316747 -42.34765118 87.81316747 -0.00025295 -2.01192304
2435140000 -0.00025399 -2.36659006 -42.32984771 87.80867833 -42.32984771 87.80867833 -0.00025399 -2.01605327
2440130000 -0.00025503 -2.37143809 -42.31208075 87.80418921 -42.31208075 87.80418921 -0.00025503 -2.02018350
2445120000 -0.00025607 -2.37628611 -42.29435014 87.79970009 -42.29435014 87.79970009 -0.00025607 -2.02431371
2450110000 -0.00025712 -2.38113411 -42.27665573 87.79521098 -42.27665573 87.79521098 -0.00025712 -2.02844393
2455100000 -0.00025817 -2.38598211 -42.25899738 87.79072188 -42.25899738 87.79072188 -0.00025817 -2.03257413
2460090000 -0.00025921 -2.39083010 -42.24137494 87.78623278 -42.24137494 87.78623278 -0.00025921 -2.03670434
2465080000 -0.00026027 -2.39567808 -42.22378826 87.78174369 -42.22378826 87.78174369 -0.00026027 -2.04083453
2470070000 -0.00026132 -2.40052605 -42.20623720 87.77725462 -42.20623720 87.77725462 -0.00026132 -2.04496472
2475060000 -0.00026238 -2.40537401 -42.18872162 87.77276554 -42.18872162 87.77276554 -0.00026238 -2.04909490
2480050000 -0.00026343 -2.41022196 -42.17124137 87.76827648 -42.17124137 87.76827648 -0.00026343 -2.05322508
2485040000 -0.00026450 -2.41506990 -42.15379632 87.76378742 -42.15379632 87.76378742 -0.00026450 -2.05735525
2490030000 -0.00026556 -2.41991784 -42.13638631 87.75929838 -42.13638631 87.75929838 -0.00026556 -2.06148541
2495020000 -0.00026662 -2.42476576 -42.11901122 87.75480934 -42.11901122 87.75480934 -0.00026662 -2.06561557
2500010000 -0.00026769 -2.42961367 -42.10167089 87.75032030 -42.10167089 87.75032030 -0.00026769 -2.06974572
2505000000 -0.00026876 -2.43446158 -42.08436520 87.74583128 -42.08436520 87.74583128 -0.00026876 -2.07387587
2509990000 -0.00026983 -2.43930947 -42.06709400 87.74134226 -42.06709400 87.74134226 -0.00026983 -2.07800600
2514980000 -0.00027090 -2.44415736 -42.04985717 87.73685325 -42.04985717 87.73685325 -0.00027090 -2.08213614
2519970000 -0.00027198 -2.44900523 -42.03265455 87.73236425 -42.03265455 87.73236425 -0.00027198 -2.08626626
2524960000 -0.00027305 -2.45385310 -42.01548602 87.72787526 -42.01548602 87.72787526 -0.00027305 -2.09039638
2529950000 -0.00027413 -2.45870096 -41.99835144 87.72338627 -41.99835144 87.72338627 -0.00027413 -2.09452650
2534940000 -0.00027522 -2.46354880 -41.98125068 87.71889730 -41.98125068 87.71889730 -0.00027522 -2.09865660
2539930000 -0.00027630 -2.46839664 -41.96418360 87.71440833 -41.96418360 87.71440833 -0.00027630 -2.10278670
2544920000 -0.00027739 -2.47324447 -41.94715008 87.70991937 -41.94715008 87.70991937 -0.00027739 -2.10691680
2549910000 -0.00027847 -2.47809229 -41.93014998 87.70543041 -41.93014998 87.70543041 -0.00027847 -2.11104689
2554900000 -0.00027956 -2.48294010 -41.91318317 87.70094147 -41.91318317 87.70094147 -0.00027956 -2.11517697
2559890000 -0.00028066 -2.48778789 -41.89624952 87.69645253 -41.89624952 87.69645253 -0.00028066 -2.11930704
2564880000 -0.00028175 -2.49263568 -41.87934891 87.69196360 -41.87934891 87.69196360 -0.00028175 -2.12343711
2569870000 -0.00028285 -2.49748346 -41.86248119 87.68747468 -41.86248119 87.68747468 -0.00028285 -2.12756717
2574860000 -0.00028394 -2.50233123 -41.84564626 87.68298577 -41.84564626 87.68298577 -0.00028394 -2.13169723
2579850000 -0.00028505 -2.50717899 -41.82884397 87.67849686 -41.82884397 87.67849686 -0.00028505 -2.13582728
2584840000 -0.00028615 -2.51202674 -41.81207421 87.67400797 -41.81207421 87.67400797 -0.00028615 -2.13995732
2589830000 -0.00028725 -2.51687448 -41.79533685 87.66951908 -41.79533685 87.66951908 -0.00028725 -2.14408736
2594820000 -0.00028836 -2.52172221 -41.77863176 87.66503020 -41.77863176 87.66503020 -0.00028836 -2.14821739
2599810000 -0.00028947 -2.52656994 -41.76195882 87.66054133 -41.76195882 87.66054133 -0.00028947 -2.15234741
2604800000 -0.00029058 -2.53141765 -41.74531791 87.65605246 -41.74531791 87.65605246 -0.00029058 -2.15647743
2609790000 -0.00029169 -2.53626535 -41.72870890 87.65156361 -41.72870890 87.65156361 -0.00029169 -2.16060744
2614780000 -0.00029281 -2.54111304 -41.71213167 87.64707476 -41.71213167 87.64707476 -0.00029281 -2.16473744
2619770000 -0.00029393 -2.54596072 -41.69558611 87.64258592 -41.69558611 87.64258592 -0.00029393 -2.16886744
2624760000 -0.00029505 -2.55080839 -41.67907208 87.63809709 -41.67907208 87.63809709 -0.00029505 -2.17299743
2629750000 -0.00029617 -2.55565605 -41.66258948 87.63360827 -41.66258948 87.63360827 -0.00029617 -2.17712741
2634740000 -0.00029729 -2.56050371 -41.64613818 87.62911945 -41.64613818 87.62911945 -0.00029729 -2.18125739
2639730000 -0.00029842 -2.56535135 -41.62971806 87.62463065 -41.62971806 87.62463065 -0.00029842 -2.18538736
2644720000 -0.00029955 -2.57019898 -41.61332901 87.62014185 -41.61332901 87.62014185 -0.00029955 -2.18951733
2649710000 -0.00030068 -2.57504660 -41.59697091 87.61565306 -41.59697091 87.61565306 -0.00030068 -2.19364728
2654700000 -0.00030181 -2.57989421 -41.58064364 87.61116428 -41.58064364 87.61116428 -0.00030181 -2.19777724
2659690000 -0.00030295 -2.58474181 -41.56434709 87.60667550 -41.56434709 87.60667550 -0.00030295 -2.20190718
2664680000 -0.00030408 -2.58958941 -41.54808114 87.60218674 -41.54808114 87.60218674 -0.00030408 -2.20603712
2669670000 -0.00030522 -2.59443699 -41.53184568 87.59769798 -41.53184568 87.59769798 -0.00030522 -2.21016705
2674660000 -0.00030636 -2.59928456 -41.51564059 87.59320923 -41.51564059 87.59320923 -0.00030636 -2.21429697
2679650000 -0.00030751 -2.60413212 -41.49946576 87.58872050 -41.49946576 87.58872050 -0.00030751 -2.21842689
2684640000 -0.00030865 -2.60897967 -41.48332108 87.58423176 -41.48332108 87.58423176 -0.00030865 -2.22255680
2689630000 -0.00030980 -2.61382721 -41.46720644 87.57974304 -41.46720644 87.57974304 -0.00030980 -2.22668671
2694620000 -0.00031095 -2.61867474 -41.45112172 87.57525433 -41.45112172 87.57525433 -0.00031095 -2.23081660
2699610000 -0.00031210 -2.62352226 -41.43506682 87.57076562 -41.43506682 87.57076562 -0.00031210 -2.23494649
2704600000 -0.00031325 -2.62836977 -41.41904162 87.56627693 -41.41904162 87.56627693 -0.00031325 -2.23907638
2709590000 -0.00031441 -2.63321727 -41.40304601 87.56178824 -41.40304601 87.56178824 -0.00031441 -2.24320625
2714580000 -0.00031557 -2.63806476 -41.38707990 87.55729956 -41.38707990 87.55729956 -0.00031557 -2.24733612
2719570000 -0.00031673 -2.64291224 -41.37114316 87.55281088 -41.37114316 87.55281088 -0.00031673 -2.25146599
2724560000 -0.00031789 -2.64775971 -41.35523569 87.54832222 -41.35523569 87.54832222 -0.00031789 -2.25559584
2729550000 -0.00031905 -2.65260717 -41.33935738 87.54383357 -41.33935738 87.54383357 -0.00031905 -2.25972569
2734540000 -0.00032022 -2.65745462 -41.32350813 87.53934492 -41.32350813 87.53934492 -0.00032022 -2.26385554
2739530000 -0.00032139 -2.66230206 -41.30768783 87.53485628 -41.30768783 87.53485628 -0.00032139 -2.26798537
2744520000 -0.00032256 -2.66714949 -41.29189638 87.53036766 -41.29189638 87.53036766 -0.00032256 -2.27211520
2749510000 -0.00032373 -2.67199690 -41.27613367 87.52587904 -41.27613367 87.52587904 -0.00032373 -2.27624502
2754500000 -0.00032491 -2.67684431 -41.26039960 87.52139042 -41.26039960 87.52139042 -0.00032491 -2.28037484
2759490000 -0.00032609 -2.68169171 -41.24469406 87.51690182 -41.24469406 87.51690182 -0.00032609 -2.28450465
2764480000 -0.00032726 -2.68653909 -41.22901695 87.51241323 -41.22901695 87.51241323 -0.00032726 -2.28863445
2769470000 -0.00032845 -2.69138647 -41.21336817 87.50792464 -41.21336817 87.50792464 -0.00032845 -2.29276424
2774460000 -0.00032963 -2.69623384 -41.19774761 87.50343607 -41.19774761 87.50343607 -0.00032963 -2.29689403
2779450000 -0.00033082 -2.70108119 -41.18215518 87.49894750 -41.18215518 87.49894750 -0.00033082 -2.30102381
2784440000 -0.00033200 -2.70592853 -41.16659077 87.49445894 -41.16659077 87.49445894 -0.00033200 -2.30515359
2789430000 -0.00033319 -2.71077587 -41.15105429 87.48997039 -41.15105429 87.48997039 -0.00033319 -2.30928335
2794420000 -0.00033438 -2.71562319 -41.13554563 87.48548185 -41.13554563 87.48548185 -0.00033438 -2.31341311
2799410000 -0.00033558 -2.72047050 -41.12006470 87.48099331 -41.12006470 87.48099331 -0.00033558 -2.31754287
2804400000 -0.00033678 -2.72531781 -41.10461139 87.47650479 -41.10461139 87.47650479 -0.00033678 -2.32167261
2809390000 -0.00033797 -2.73016510 -41.08918561 87.47201628 -41.08918561 87.47201628 -0.00033797 -2.32580235
2814380000 -0.00033917 -2.73501238 -41.07378726 87.46752777 -41.07378726 87.46752777 -0.00033917 -2.32993208
2819370000 -0.00034038 -2.73985965 -41.05841625 87.46303927 -41.05841625 87.46303927 -0.00034038 -2.33406181
2824360000 -0.00034158 -2.74470691 -41.04307247 87.45855078 -41.04307247 87.45855078 -0.00034158 -2.33819152
2829350000 -0.00034279 -2.74955416 -41.02775583 87.45406230 -41.02775583 87.45406230 -0.00034279 -2.34232124
2834340000 -0.00034400 -2.75440140 -41.01246624 87.44957383 -41.01246624 87.44957383 -0.00034400 -2.34645094
2839330000 -0.00034521 -2.75924862 -40.99720359 87.44508537 -40.99720359 87.44508537 -0.00034521 -2.35058063
2844320000 -0.00034642 -2.76409584 -40.98196781 87.44059692 -40.98196781 87.44059692 -0.00034642 -2.35471032
2849310000 -0.00034764 -2.76894305 -40.96675878 87.43610847 -40.96675878 87.43610847 -0.00034764 -2.35884001
2854300000 -0.00034885 -2.77379024 -40.95157642 87.43162004 -40.95157642 87.43162004 -0.00034885 -2.36296968
2859290000 -0.00035007 -2.77863743 -40.93642064 87.42713161 -40.93642064 87.42713161 -0.00035007 -2.36709935
2864280000 -0.00035130 -2.78348460 -40.92129134 87.42264320 -40.92129134 87.42264320 -0.00035130 -2.37122901
2869270000 -0.00035252 -2.78833176 -40.90618843 87.41815479 -40.90618843 87.41815479 -0.00035252 -2.37535866
2874260000 -0.00035375 -2.79317891 -40.89111182 87.41366639 -40.89111182 87.41366639 -0.00035375 -2.37948831
2879250000 -0.00035497 -2.79802606 -40.87606142 87.40917800 -40.87606142 87.40917800 -0.00035497 -2.38361795
2884240000 -0.00035620 -2.80287319 -40.86103713 87.40468962 -40.86103713 87.40468962 -0.00035620 -2.38774758
2889230000 -0.00035744 -2.80772030 -40.84603887 87.40020125 -40.84603887 87.40020125 -0.00035744 -2.39187720
2894220000 -0.00035867 -2.81256741 -40.83106655 87.39571288 -40.83106655 87.39571288 -0.00035867 -2.39600682
2899210000 -0.00035991 -2.81741451 -40.81612007 87.39122453 -40.81612007 87.39122453 -0.00035991 -2.40013643
2904200000 -0.00036115 -2.82226160 -40.80119935 87.38673618 -40.80119935 87.38673618 -0.00036115 -2.40426603
2909190000 -0.00036239 -2.82710867 -40.78630431 87.38224785 -40.78630431 87.38224785 -0.00036239 -2.40839563
2914180000 -0.00036363 -2.83195574 -40.77143484 87.37775952 -40.77143484 87.37775952 -0.00036363 -2.41252522
2919170000 -0.00036487 -2.83680279 -40.75659088 87.37327121 -40.75659088 87.37327121 -0.00036487 -2.41665480
2924160000 -0.00036612 -2.84164983 -40.74177232 87.36878290 -40.74177232 87.36878290 -0.00036612 -2.42078437
2929150000 -0.00036737 -2.84649686 -40.72697908 87.36429460 -40.72697908 87.36429460 -0.00036737 -2.42491394
2934140000 -0.00036862 -2.85134388 -40.71221107 87.35980631 -40.71221107 87.35980631 -0.00036862 -2.42904350
2939130000 -0.00036988 -2.85619089 -40.69746822 87.35531803 -40.69746822 87.35531803 -0.00036988 -2.43317305
2944120000 -0.00037113 -2.86103789 -40.68275043 87.35082976 -40.68275043 87.35082976 -0.00037113 -2.43730259
2949110000 -0.00037239 -2.86588488 -40.66805762 87.34634150 -40.66805762 87.34634150 -0.00037239 -2.44143213
2954100000 -0.00037365 -2.87073185 -40.65338971 87.34185324 -40.65338971 87.34185324 -0.00037365 -2.44556166
2959090000 -0.00037491 -2.87557882 -40.63874661 87.33736500 -40.63874661 87.33736500 -0.00037491 -2.44969118
2964080000 -0.00037618 -2.88042577 -40.62412824 87.33287677 -40.62412824 87.33287677 -0.00037618 -2.45382069
2969070000 -0.00037744 -2.88527271 -40.60953451 87.32838854 -40.60953451 87.32838854 -0.00037744 -2.45795020
2974060000 -0.00037871 -2.89011964 -40.59496534 87.32390033 -40.59496534 87.32390033 -0.00037871 -2.46207970
2979050000 -0.00037998 -2.89496656 -40.58042065 87.31941212 -40.58042065 87.31941212 -0.00037998 -2.46620919
2984040000 -0.00038125 -2.89981347 -40.56590037 87.31492392 -40.56590037 87.31492392 -0.00038125 -2.47033868
2989030000 -0.00038253 -2.90466037 -40.55140439 87.31043574 -40.55140439 87.31043574 -0.00038253 -2.47446816
2994020000 -0.00038380 -2.90950726 -40.53693266 87.30594756 -40.53693266 87.30594756 -0.00038380 -2.47859762
2999010000 -0.00038508 -2.91435413 -40.52248508 87.30145939 -40.52248508 87.30145939 -0.00038508 -2.48272709
3004000000 -0.00038636 -2.91920099 -40.50806157 87.29697123 -40.50806157 87.29697123 -0.00038636 -2.48685654
3008990000 -0.00038765 -2.92404784 -40.49366206 87.29248308 -40.49366206 87.29248308 -0.00038765 -2.49098599
3013980000 -0.00038893 -2.92889468 -40.47928646 87.28799494 -40.47928646 87.28799494 -0.00038893 -2.49511543
3018970000 -0.00039022 -2.93374151 -40.46493471 87.28350681 -40.46493471 87.28350681 -0.00039022 -2.49924486
3023960000 -0.00039151 -2.93858833 -40.45060671 87.27901869 -40.45060671 87.27901869 -0.00039151 -2.50337428
3028950000 -0.00039280 -2.94343514 -40.43630238 87.27453058 -40.43630238 87.27453058 -0.00039280 -2.50750370
3033940000 -0.00039410 -2.94828193 -40.42202166 87.27004248 -40.42202166 87.27004248 -0.00039410 -2.51163311
3038930000 -0.00039539 -2.95312872 -40.40776447 87.26555439 -40.40776447 87.26555439 -0.00039539 -2.51576251
3043920000 -0.00039669 -2.95797549 -40.39353072 87.26106630 -40.39353072 87.26106630 -0.00039669 -2.51989191
3048910000 -0.00039799 -2.96282225 -40.37932034 87.25657823 -40.37932034 87.25657823 -0.00039799 -2.52402129
3053900000 -0.00039929 -2.96766900 -40.36513326 87.25209017 -40.36513326 87.25209017 -0.00039929 -2.52815067
3058890000 -0.00040060 -2.97251573 -40.35096939 87.24760211 -40.35096939 87.24760211 -0.00040060 -2.53228004
3063880000 -0.00040190 -2.97736246 -40.33682867 87.24311407 -40.33682867 87.24311407 -0.00040190 -2.53640941
3068870000 -0.00040321 -2.98220917 -40.32271102 87.23862603 -40.32271102 87.23862603 -0.00040321 -2.54053876
3073860000 -0.00040452 -2.98705587 -40.30861635 87.23413801 -40.30861635 87.23413801 -0.00040452 -2.54466811
3078850000 -0.00040584 -2.99190257 -40.29454461 87.22964999 -40.29454461 87.22964999 -0.00040584 -2.54879745
3083840000 -0.00040715 -2.99674924 -40.28049571 87.22516199 -40.28049571 87.22516199 -0.00040715 -2.55292678
3088830000 -0.00040847 -3.00159591 -40.26646958 87.22067399 -40.26646958 87.22067399 -0.00040847 -2.55705611
3093820000 -0.00040979 -3.00644257 -40.25246614 87.21618600 -40.25246614 87.21618600 -0.00040979 -2.56118543
3098810000 -0.00041111 -3.01128921 -40.23848533 87.21169803 -40.23848533 87.21169803 -0.00041111 -2.56531473
3103800000 -0.00041243 -3.01613584 -40.22452707 87.20721006 -40.22452707 87.20721006 -0.00041243 -2.56944404
3108790000 -0.00041376 -3.02098246 -40.21059129 87.20272210 -40.21059129 87.20272210 -0.00041376 -2.57357333
3113780000 -0.00041509 -3.02582907 -40.19667791 87.19823416 -40.19667791 87.19823416 -0.00041509 -2.57770262
3118770000 -0.00041642 -3.03067567 -40.18278687 87.19374622 -40.18278687 87.19374622 -0.00041642 -2.58183189
3123760000 -0.00041775 -3.03552226 -40.16891810 87.18925829 -40.16891810 87.18925829 -0.00041775 -2.58596117
3128750000 -0.00041908 -3.04036883 -40.15507151 87.18477037 -40.15507151 87.18477037 -0.00041908 -2.59009043
3133740000 -0.00042042 -3.04521539 -40.14124705 87.18028246 -40.14124705 87.18028246 -0.00042042 -2.59421968
3138730000 -0.00042176 -3.05006194 -40.12744464 87.17579457 -40.12744464 87.17579457 -0.00042176 -2.59834893
3143720000 -0.00042310 -3.05490848 -40.11366421 87.17130668 -40.11366421 87.17130668 -0.00042310 -2.60247817
3148710000 -0.00042444 -3.05975500 -40.09990569 87.16681880 -40.09990569 87.16681880 -0.00042444 -2.60660740
3153700000 -0.00042578 -3.06460152 -40.08616902 87.16233093 -40.08616902 87.16233093 -0.00042578 -2.61073662
3158690000 -0.00042713 -3.06944802 -40.07245412 87.15784307 -40.07245412 87.15784307 -0.00042713 -2.61486584
3163680000 -0.00042848 -3.07429451 -40.05876092 87.15335522 -40.05876092 87.15335522 -0.00042848 -2.61899505
3168670000 -0.00042983 -3.07914099 -40.04508936 87.14886738 -40.04508936 87.14886738 -0.00042983 -2.62312424
3173660000 -0.00043118 -3.08398745 -40.03143937 87.14437955 -40.03143937 87.14437955 -0.00043118 -2.62725344
3178650000 -0.00043254 -3.08883391 -40.01781088 87.13989174 -40.01781088 87.13989174 -0.00043254 -2.63138262
3183640000 -0.00043390 -3.09368035 -40.00420382 87.13540393 -40.00420382 87.13540393 -0.00043390 -2.63551180
3188630000 -0.00043526 -3.09852678 -39.99061813 87.13091613 -39.99061813 87.13091613 -0.00043526 -2.63964096
3193620000 -0.00043662 -3.10337320 -39.97705374 87.12642834 -39.97705374 87.12642834 -0.00043662 -2.64377012
3198610000 -0.00043798 -3.10821961 -39.96351059 87.12194056 -39.96351059 87.12194056 -0.00043798 -2.64789927
3203600000 -0.00043935 -3.11306600 -39.94998860 87.11745279 -39.94998860 87.11745279 -0.00043935 -2.65202842
3208590000 -0.00044071 -3.11791238 -39.93648771 87.11296503 -39.93648771 87.11296503 -0.00044071 -2.65615755
3213580000 -0.00044208 -3.12275875 -39.92300786 87.10847728 -39.92300786 87.10847728 -0.00044208 -2.66028668
3218570000 -0.00044346 -3.12760511 -39.90954898 87.10398955 -39.90954898 87.10398955 -0.00044346 -2.66441580
3223560000 -0.00044483 -3.13245145 -39.89611100 87.09950182 -39.89611100 87.09950182 -0.00044483 -2.66854491
3228550000 -0.00044621 -3.13729779 -39.88269387 87.09501410 -39.88269387 87.09501410 -0.00044621 -2.67267402
3233540000 -0.00044759 -3.14214411 -39.86929751 87.09052639 -39.86929751 87.09052639 -0.00044759 -2.67680311
3238530000 -0.00044897 -3.14699042 -39.85592187 87.08603869 -39.85592187 87.08603869 -0.00044897 -2.68093220
3243520000 -0.00045035 -3.15183671 -39.84256688 87.08155100 -39.84256688 87.08155100 -0.00045035 -2.68506128
3248510000 -0.00045173 -3.15668300 -39.82923247 87.07706333 -39.82923247 87.07706333 -0.00045173 -2.68919035
3253500000 -0.00045312 -3.16152927 -39.81591858 87.07257566 -39.81591858 87.07257566 -0.00045312 -2.69331941
3258490000 -0.00045451 -3.16637553 -39.80262516 87.06808800 -39.80262516 87.06808800 -0.00045451 -2.69744846
3263480000 -0.00045590 -3.17122178 -39.78935213 87.06360036 -39.78935213 87.06360036 -0.00045590 -2.70157751
3268470000 -0.00045730 -3.17606801 -39.77609944 87.05911272 -39.77609944 87.05911272 -0.00045730 -2.70570655
3273460000 -0.00045869 -3.18091423 -39.76286702 87.05462509 -39.76286702 87.05462509 -0.00045869 -2.70983558
3278450000 -0.00046009 -3.18576044 -39.74965481 87.05013748 -39.74965481 87.05013748 -0.00046009 -2.71396460
3283440000 -0.00046149 -3.19060664 -39.73646275 87.04564987 -39.73646275 87.04564987 -0.00046149 -2.71809361
3288430000 -0.00046289 -3.19545283 -39.72329078 87.04116228 -39.72329078 87.04116228 -0.00046289 -2.72222262
3293420000 -0.00046429 -3.20029900 -39.71013884 87.03667469 -39.71013884 87.03667469 -0.00046429 -2.72635162
3298410000 -0.00046570 -3.20514516 -39.69700687 87.03218712 -39.69700687 87.03218712 -0.00046570 -2.73048061
3303400000 -0.00046711 -3.20999131 -39.68389480 87.02769955 -39.68389480 87.02769955 -0.00046711 -2.73460959
3308390000 -0.00046852 -3.21483745 -39.67080259 87.02321200 -39.67080259 87.02321200 -0.00046852 -2.73873856
3313380000 -0.00046993 -3.21968357 -39.65773016 87.01872445 -39.65773016 87.01872445 -0.00046993 -2.74286752
3318370000 -0.00047135 -3.22452968 -39.64467745 87.01423692 -39.64467745 87.01423692 -0.00047135 -2.74699648
3323360000 -0.00047276 -3.22937578 -39.63164442 87.00974940 -39.63164442 87.00974940 -0.00047276 -2.75112543
3328350000 -0.00047418 -3.23422186 -39.61863100 87.00526189 -39.61863100 87.00526189 -0.00047418 -2.75525436
3333340000 -0.00047560 -3.23906794 -39.60563713 87.00077438 -39.60563713 87.00077438 -0.00047560 -2.75938330
3338330000 -0.00047703 -3.24391400 -39.59266275 86.99628689 -39.59266275 86.99628689 -0.00047703 -2.76351222
3343320000 -0.00047845 -3.24876004 -39.57970780 86.99179941 -39.57970780 86.99179941 -0.00047845 -2.76764113
3348310000 -0.00047988 -3.25360608 -39.56677224 86.98731194 -39.56677224 86.98731194 -0.00047988 -2.77177004
3353300000 -0.00048131 -3.25845210 -39.55385599 86.98282448 -39.55385599 86.98282448 -0.00048131 -2.77589893
3358290000 -0.00048274 -3.26329811 -39.54095900 86.97833703 -39.54095900 86.97833703 -0.00048274 -2.78002782
3363280000 -0.00048417 -3.26814411 -39.52808122 86.97384959 -39.52808122 86.97384959 -0.00048417 -2.78415670
3368270000 -0.00048561 -3.27299009 -39.51522259 86.96936217 -39.51522259 86.96936217 -0.00048561 -2.78828558
3373260000 -0.00048705 -3.27783606 -39.50238305 86.96487475 -39.50238305 86.96487475 -0.00048705 -2.79241444
3378250000 -0.00048849 -3.28268202 -39.48956254 86.96038734 -39.48956254 86.96038734 -0.00048849 -2.79654329
3383240000 -0.00048993 -3.28752797 -39.47676101 86.95589995 -39.47676101 86.95589995 -0.00048993 -2.80067214
3388230000 -0.00049137 -3.29237390 -39.46397841 86.95141256 -39.46397841 86.95141256 -0.00049137 -2.80480098
3393220000 -0.00049282 -3.29721982 -39.45121467 86.94692519 -39.45121467 86.94692519 -0.00049282 -2.80892981
3398210000 -0.00049427 -3.30206573 -39.43846975 86.94243782 -39.43846975 86.94243782 -0.00049427 -2.81305863
3403200000 -0.00049572 -3.30691162 -39.42574358 86.93795047 -39.42574358 86.93795047 -0.00049572 -2.81718744
3408190000 -0.00049717 -3.31175750 -39.41303611 86.93346312 -39.41303611 86.93346312 -0.00049717 -2.82131625
3413180000 -0.00049863 -3.31660337 -39.40034729 86.92897579 -39.40034729 86.92897579 -0.00049863 -2.82544504
3418170000 -0.00050008 -3.32144923 -39.38767707 86.92448847 -39.38767707 86.92448847 -0.00050008 -2.82957383
3423160000 -0.00050154 -3.32629507 -39.37502538 86.92000116 -39.37502538 86.92000116 -0.00050154 -2.83370261
3428150000 -0.00050300 -3.33114090 -39.36239218 86.91551386 -39.36239218 86.91551386 -0.00050300 -2.83783138
3433140000 -0.00050447 -3.33598672 -39.34977740 86.91102657 -39.34977740 86.91102657 -0.00050447 -2.84196014
3438130000 -0.00050593 -3.34083252 -39.33718101 86.90653929 -39.33718101 86.90653929 -0.00050593 -2.84608889
3443120000 -0.00050740 -3.34567832 -39.32460294 86.90205202 -39.32460294 86.90205202 -0.00050740 -2.85021763
3448110000 -0.00050887 -3.35052409 -39.31204314 86.89756477 -39.31204314 86.89756477 -0.00050887 -2.85434637
3453100000 -0.00051034 -3.35536986 -39.29950156 86.89307752 -39.29950156 86.89307752 -0.00051034 -2.85847510
3458090000 -0.00051181 -3.36021561 -39.28697815 86.88859029 -39.28697815 86.88859029 -0.00051181 -2.86260381
3463080000 -0.00051329 -3.36506135 -39.27447285 86.88410306 -39.27447285 86.88410306 -0.00051329 -2.86673252
3468070000 -0.00051477 -3.36990708 -39.26198561 86.87961585 -39.26198561 86.87961585 -0.00051477 -2.87086122
3473060000 -0.00051625 -3.37475279 -39.24951639 86.87512865 -39.24951639 86.87512865 -0.00051625 -2.87498992
3478050000 -0.00051773 -3.37959849 -39.23706512 86.87064146 -39.23706512 86.87064146 -0.00051773 -2.87911860
3483040000 -0.00051921 -3.38444418 -39.22463176 86.86615427 -39.22463176 86.86615427 -0.00051921 -2.88324727
3488030000 -0.00052070 -3.38928985 -39.21221625 86.86166711 -39.21221625 86.86166711 -0.00052070 -2.88737594
3493020000 -0.00052219 -3.39413551 -39.19981855 86.85717995 -39.19981855 86.85717995 -0.00052219 -2.89150460
3498010000 -0.00052368 -3.39898116 -39.18743860 86.85269280 -39.18743860 86.85269280 -0.00052368 -2.89563325
3503000000 -0.00052517 -3.40382679 -39.17507636 86.84820566 -39.17507636 86.84820566 -0.00052517 -2.89976189
3507990000 -0.00052667 -3.40867241 -39.16273177 86.84371854 -39.16273177 86.84371854 -0.00052667 -2.90389052
3512980000 -0.00052817 -3.41351802 -39.15040478 86.83923142 -39.15040478 86.83923142 -0.00052817 -2.90801914
3517970000 -0.00052966 -3.41836361 -39.13809534 86.83474432 -39.13809534 86.83474432 -0.00052966 -2.91214775
3522960000 -0.00053117 -3.42320919 -39.12580341 86.83025723 -39.12580341 86.83025723 -0.00053117 -2.91627636
3527950000 -0.00053267 -3.42805476 -39.11352893 86.82577014 -39.11352893 86.82577014 -0.00053267 -2.92040495
3532940000 -0.00053418 -3.43290031 -39.10127186 86.82128307 -39.10127186 86.82128307 -0.00053418 -2.92453354
3537930000 -0.00053568 -3.43774585 -39.08903214 86.81679601 -39.08903214 86.81679601 -0.00053568 -2.92866212
3542920000 -0.00053719 -3.44259138 -39.07680973 86.81230897 -39.07680973 86.81230897 -0.00053719 -2.93279069
3547910000 -0.00053870 -3.44743690 -39.06460458 86.80782193 -39.06460458 86.80782193 -0.00053870 -2.93691925
3552900000 -0.00054022 -3.45228240 -39.05241664 86.80333490 -39.05241664 86.80333490 -0.00054022 -2.94104780
3557890000 -0.00054173 -3.45712788 -39.04024586 86.79884789 -39.04024586 86.79884789 -0.00054173 -2.94517634
3562880000 -0.00054325 -3.46197336 -39.02809219 86.79436089 -39.02809219 86.79436089 -0.00054325 -2.94930487
3567870000 -0.00054477 -3.46681882 -39.01595559 86.78987389 -39.01595559 86.78987389 -0.00054477 -2.95343340
3572860000 -0.00054630 -3.47166426 -39.00383600 86.78538691 -39.00383600 86.78538691 -0.00054630 -2.95756191
3577850000 -0.00054782 -3.47650970 -38.99173339 86.78089994 -38.99173339 86.78089994 -0.00054782 -2.96169042
3582840000 -0.00054935 -3.48135512 -38.97964770 86.77641298 -38.97964770 86.77641298 -0.00054935 -2.96581892
3587830000 -0.00055088 -3.48620052 -38.96757888 86.77192604 -38.96757888 86.77192604 -0.00055088 -2.96994740
3592820000 -0.00055241 -3.49104592 -38.95552690 86.76743910 -38.95552690 86.76743910 -0.00055241 -2.97407588
3597810000 -0.00055394 -3.49589129 -38.94349170 86.76295217 -38.94349170 86.76295217 -0.00055394 -2.97820436
3602800000 -0.00055548 -3.50073666 -38.93147323 86.75846526 -38.93147323 86.75846526 -0.00055548 -2.98233282
3607790000 -0.00055701 -3.50558201 -38.91947146 86.75397836 -38.91947146 86.75397836 -0.00055701 -2.98646127
3612780000 -0.00055855 -3.51042735 -38.90748633 86.74949147 -38.90748633 86.74949147 -0.00055855 -2.99058971
3617770000 -0.00056009 -3.51527267 -38.89551779 86.74500459 -38.89551779 86.74500459 -0.00056009 -2.99471815
3622760000 -0.00056164 -3.52011799 -38.88356581 86.74051772 -38.88356581 86.74051772 -0.00056164 -2.99884657
3627750000 -0.00056318 -3.52496328 -38.87163034 86.73603086 -38.87163034 86.73603086 -0.00056318 -3.00297499
3632740000 -0.00056473 -3.52980857 -38.85971133 86.73154402 -38.85971133 86.73154402 -0.00056473 -3.00710340
3637730000 -0.00056628 -3.53465384 -38.84780874 86.72705718 -38.84780874 86.72705718 -0.00056628 -3.01123179
3642720000 -0.00056783 -3.53949909 -38.83592251 86.72257036 -38.83592251 86.72257036 -0.00056783 -3.01536018
3647710000 -0.00056939 -3.54434433 -38.82405262 86.71808355 -38.82405262 86.71808355 -0.00056939 -3.01948856
3652700000 -0.00057094 -3.54918956 -38.81219900 86.71359675 -38.81219900 86.71359675 -0.00057094 -3.02361693
3657690000 -0.00057250 -3.55403478 -38.80036163 86.70910996 -38.80036163 86.70910996 -0.00057250 -3.02774530
3662680000 -0.00057406 -3.55887998 -38.78854045 86.70462319 -38.78854045 86.70462319 -0.00057406 -3.03187365
3667670000 -0.00057562 -3.56372516 -38.77673541 86.70013642 -38.77673541 86.70013642 -0.00057562 -3.03600199
3672660000 -0.00057719 -3.56857034 -38.76494649 86.69564967 -38.76494649 86.69564967 -0.00057719 -3.04013033
3677650000 -0.00057876 -3.57341550 -38.75317362 86.69116293 -38.75317362 86.69116293 -0.00057876 -3.04425865
3682640000 -0.00058033 -3.57826064 -38.74141678 86.68667620 -38.74141678 86.68667620 -0.00058033 -3.04838697
3687630000 -0.00058190 -3.58310577 -38.72967591 86.68218948 -38.72967591 86.68218948 -0.00058190 -3.05251527
3692620000 -0.00058347 -3.58795089 -38.71795097 86.67770277 -38.71795097 86.67770277 -0.00058347 -3.05664357
3697610000 -0.00058505 -3.59279599 -38.70624193 86.67321607 -38.70624193 86.67321607 -0.00058505 -3.06077186
3702600000 -0.00058662 -3.59764108 -38.69454872 86.66872939 -38.69454872 86.66872939 -0.00058662 -3.06490014
3707590000 -0.00058820 -3.60248616 -38.68287133 86.66424272 -38.68287133 86.66424272 -0.00058820 -3.06902841
3712580000 -0.00058978 -3.60733122 -38.67120969 86.65975606 -38.67120969 86.65975606 -0.00058978 -3.07315667
3717570000 -0.00059137 -3.61217627 -38.65956378 86.65526941 -38.65956378 86.65526941 -0.00059137 -3.07728492
3722560000 -0.00059295 -3.61702130 -38.64793354 86.65078277 -38.64793354 86.65078277 -0.00059295 -3.08141316
3727550000 -0.00059454 -3.62186632 -38.63631893 86.64629614 -38.63631893 86.64629614 -0.00059454 -3.08554139
3732540000 -0.00059613 -3.62671133 -38.62471992 86.64180953 -38.62471992 86.64180953 -0.00059613 -3.08966961
3737530000 -0.00059772 -3.63155632 -38.61313647 86.63732293 -38.61313647 86.63732293 -0.00059772 -3.09379783
3742520000 -0.00059932 -3.63640129 -38.60156852 86.63283634 -38.60156852 86.63283634 -0.00059932 -3.09792603
3747510000 -0.00060091 -3.64124626 -38.59001604 86.62834976 -38.59001604 86.62834976 -0.00060091 -3.10205422
3752500000 -0.00060251 -3.64609121 -38.57847899 86.62386319 -38.57847899 86.62386319 -0.00060251 -3.10618241
3757490000 -0.00060411 -3.65093614 -38.56695733 86.61937664 -38.56695733 86.61937664 -0.00060411 -3.11031059
3762480000 -0.00060572 -3.65578106 -38.55545101 86.61489009 -38.55545101 86.61489009 -0.00060572 -3.11443875
3767470000 -0.00060732 -3.66062597 -38.54396000 86.61040356 -38.54396000 86.61040356 -0.00060732 -3.11856691
3772460000 -0.00060893 -3.66547086 -38.53248426 86.60591704 -38.53248426 86.60591704 -0.00060893 -3.12269506
3777450000 -0.00061054 -3.67031574 -38.52102374 86.60143053 -38.52102374 86.60143053 -0.00061054 -3.12682320
3782440000 -0.00061215 -3.67516060 -38.50957840 86.59694404 -38.50957840 86.59694404 -0.00061215 -3.13095132
3787430000 -0.00061376 -3.68000545 -38.49814821 86.59245755 -38.49814821 86.59245755 -0.00061376 -3.13507944
3792420000 -0.00061538 -3.68485028 -38.48673313 86.58797108 -38.48673313 86.58797108 -0.00061538 -3.13920755
3797410000 -0.00061700 -3.68969510 -38.47533311 86.58348462 -38.47533311 86.58348462 -0.00061700 -3.14333565
3802400000 -0.00061861 -3.69453991 -38.46394812 86.57899817 -38.46394812 86.57899817 -0.00061861 -3.14746374
3807390000 -0.00062024 -3.69938470 -38.45257811 86.57451174 -38.45257811 86.57451174 -0.00062024 -3.15159182
3812380000 -0.00062186 -3.70422948 -38.44122305 86.57002531 -38.44122305 86.57002531 -0.00062186 -3.15571990
3817370000 -0.00062349 -3.70907424 -38.42988290 86.56553890 -38.42988290 86.56553890 -0.00062349 -3.15984796
3822360000 -0.00062511 -3.71391899 -38.41855762 86.56105250 -38.41855762 86.56105250 -0.00062511 -3.16397601
3827350000 -0.00062675 -3.71876372 -38.40724717 86.55656611 -38.40724717 86.55656611 -0.00062675 -3.16810405
3832340000 -0.00062838 -3.72360844 -38.39595151 86.55207974 -38.39595151 86.55207974 -0.00062838 -3.17223209
3837330000 -0.00063001 -3.72845315 -38.38467061 86.54759337 -38.38467061 86.54759337 -0.00063001 -3.17636011
3842320000 -0.00063165 -3.73329784 -38.37340442 86.54310702 -38.37340442 86.54310702 -0.00063165 -3.18048813
3847310000 -0.00063329 -3.73814251 -38.36215291 86.53862068 -38.36215291 86.53862068 -0.00063329 -3.18461613
3852300000 -0.00063493 -3.74298718 -38.35091604 86.53413435 -38.35091604 86.53413435 -0.00063493 -3.18874412
3857290000 -0.00063657 -3.74783182 -38.33969377 86.52964803 -38.33969377 86.52964803 -0.00063657 -3.19287211
3862280000 -0.00063822 -3.75267646 -38.32848607 86.52516173 -38.32848607 86.52516173 -0.00063822 -3.19700009
3867270000 -0.00063986 -3.75752107 -38.31729289 86.52067544 -38.31729289 86.52067544 -0.00063986 -3.20112805
3872260000 -0.00064151 -3.76236568 -38.30611420 86.51618916 -38.30611420 86.51618916 -0.00064151 -3.20525601
3877250000 -0.00064316 -3.76721026 -38.29494996 86.51170289 -38.29494996 86.51170289 -0.00064316 -3.20938395
3882240000 -0.00064482 -3.77205484 -38.28380014 86.50721664 -38.28380014 86.50721664 -0.00064482 -3.21351189
3887230000 -0.00064647 -3.77689940 -38.27266470 86.50273039 -38.27266470 86.50273039 -0.00064647 -3.21763982
3892220000 -0.00064813 -3.78174394 -38.26154359 86.49824416 -38.26154359 86.49824416 -0.00064813 -3.22176773
3897210000 -0.00064979 -3.78658847 -38.25043679 86.49375794 -38.25043679 86.49375794 -0.00064979 -3.22589564
3902200000 -0.00065145 -3.79143299 -38.23934426 86.48927174 -38.23934426 86.48927174 -0.00065145 -3.23002354
3907190000 -0.00065312 -3.79627749 -38.22826596 86.48478554 -38.22826596 86.48478554 -0.00065312 -3.23415143
3912180000 -0.00065478 -3.80112197 -38.21720186 86.48029936 -38.21720186 86.48029936 -0.00065478 -3.23827931
3917170000 -0.00065645 -3.80596644 -38.20615191 86.47581319 -38.20615191 86.47581319 -0.00065645 -3.24240717
3922160000 -0.00065812 -3.81081090 -38.19511609 86.47132703 -38.19511609 86.47132703 -0.00065812 -3.24653503
3927150000 -0.00065979 -3.81565534 -38.18409435 86.46684089 -38.18409435 86.46684089 -0.00065979 -3.25066288
3932140000 -0.00066147 -3.82049977 -38.17308667 86.46235476 -38.17308667 86.46235476 -0.00066147 -3.25479072
3937130000 -0.00066314 -3.82534418 -38.16209300 86.45786864 -38.16209300 86.45786864 -0.00066314 -3.25891855
3942120000 -0.00066482 -3.83018858 -38.15111331 86.45338253 -38.15111331 86.45338253 -0.00066482 -3.26304637
3947110000 -0.00066650 -3.83503296 -38.14014757 86.44889643 -38.14014757 86.44889643 -0.00066650 -3.26717418
3952100000 -0.00066819 -3.83987732 -38.12919573 86.44441035 -38.12919573 86.44441035 -0.00066819 -3.27130198
3957090000 -0.00066987 -3.84472168 -38.11825777 86.43992428 -38.11825777 86.43992428 -0.00066987 -3.27542977
3962080000 -0.00067156 -3.84956601 -38.10733366 86.43543822 -38.10733366 86.43543822 -0.00067156 -3.27955755
3967070000 -0.00067325 -3.85441033 -38.09642334 86.43095217 -38.09642334 86.43095217 -0.00067325 -3.28368532
3972060000 -0.00067494 -3.85925464 -38.08552680 86.42646614 -38.08552680 86.42646614 -0.00067494 -3.28781308
3977050000 -0.00067663 -3.86409893 -38.07464400 86.42198012 -38.07464400 86.42198012 -0.00067663 -3.29194083
3982040000 -0.00067833 -3.86894321 -38.06377489 86.41749411 -38.06377489 86.41749411 -0.00067833 -3.29606857
3987030000 -0.00068003 -3.87378747 -38.05291945 86.41300812 -38.05291945 86.41300812 -0.00068003 -3.30019630
3992020000 -0.00068173 -3.87863172 -38.04207765 86.40852213 -38.04207765 86.40852213 -0.00068173 -3.30432402
3997010000 -0.00068343 -3.88347595 -38.03124945 86.40403616 -38.03124945 86.40403616 -0.00068343 -3.30845173
4002000000 -0.00068513 -3.88832017 -38.02043481 86.39955020 -38.02043481 86.39955020 -0.00068513 -3.31257943
4006990000 -0.00068684 -3.89316437 -38.00963370 86.39506426 -38.00963370 86.39506426 -0.00068684 -3.31670712
4011980000 -0.00068855 -3.89800856 -37.99884609 86.39057832 -37.99884609 86.39057832 -0.00068855 -3.32083480
4016970000 -0.00069026 -3.90285273 -37.98807195 86.38609240 -37.98807195 86.38609240 -0.00069026 -3.32496247
4021960000 -0.00069197 -3.90769688 -37.97731124 86.38160650 -37.97731124 86.38160650 -0.00069197 -3.32909013
4026950000 -0.00069369 -3.91254102 -37.96656392 86.37712060 -37.96656392 86.37712060 -0.00069369 -3.33321777
4031940000 -0.00069540 -3.91738515 -37.95582997 86.37263472 -37.95582997 86.37263472 -0.00069540 -3.33734541
4036930000 -0.00069712 -3.92222926 -37.94510936 86.36814885 -37.94510936 86.36814885 -0.00069712 -3.34147304
4041920000 -0.00069884 -3.92707335 -37.93440204 86.36366299 -37.93440204 86.36366299 -0.00069884 -3.34560066
4046910000 -0.00070057 -3.93191743 -37.92370799 86.35917715 -37.92370799 86.35917715 -0.00070057 -3.34972827
4051900000 -0.00070229 -3.93676150 -37.91302717 86.35469131 -37.91302717 86.35469131 -0.00070229 -3.35385587
4056890000 -0.00070402 -3.94160555 -37.90235955 86.35020550 -37.90235955 86.35020550 -0.00070402 -3.35798346
4061880000 -0.00070575 -3.94644958 -37.89170510 86.34571969 -37.89170510 86.34571969 -0.00070575 -3.36211104
4066870000 -0.00070748 -3.95129360 -37.88106379 86.34123390 -37.88106379 86.34123390 -0.00070748 -3.36623861
4071860000 -0.00070921 -3.95613760 -37.87043558 86.33674811 -37.87043558 86.33674811 -0.00070921 -3.37036617
4076850000 -0.00071095 -3.96098159 -37.85982045 86.33226235 -37.85982045 86.33226235 -0.00071095 -3.37449371
4081840000 -0.00071269 -3.96582556 -37.84921836 86.32777659 -37.84921836 86.32777659 -0.00071269 -3.37862125
4086830000 -0.00071443 -3.97066952 -37.83862927 86.32329085 -37.83862927 86.32329085 -0.00071443 -3.38274878
4091820000 -0.00071617 -3.97551346 -37.82805316 86.31880512 -37.82805316 86.31880512 -0.00071617 -3.38687630
4096810000 -0.00071791 -3.98035739 -37.81749000 86.31431940 -37.81749000 86.31431940 -0.00071791 -3.39100380
4101800000 -0.00071966 -3.98520130 -37.80693975 86.30983370 -37.80693975 86.30983370 -0.00071966 -3.39513130
4106790000 -0.00072141 -3.99004520 -37.79640238 86.30534801 -37.79640238 86.30534801 -0.00072141 -3.39925879
4111780000 -0.00072316 -3.99488908 -37.78587787 86.30086233 -37.78587787 86.30086233 -0.00072316 -3.40338626
4116770000 -0.00072491 -3.99973294 -37.77536617 86.29637667 -37.77536617 86.29637667 -0.00072491 -3.40751373
4121760000 -0.00072666 -4.00457679 -37.76486727 86.29189101 -37.76486727 86.29189101 -0.00072666 -3.41164119
4126750000 -0.00072842 -4.00942062 -37.75438112 86.28740537 -37.75438112 86.28740537 -0.00072842 -3.41576863
4131740000 -0.00073018 -4.01426444 -37.74390770 86.28291975 -37.74390770 86.28291975 -0.00073018 -3.41989607
4136730000 -0.00073194 -4.01910824 -37.73344698 86.27843413 -37.73344698 86.27843413 -0.00073194 -3.42402349
4141720000 -0.00073370 -4.02395203 -37.72299892 86.27394853 -37.72299892 86.27394853 -0.00073370 -3.42815091
4146710000 -0.00073547 -4.02879580 -37.71256350 86.26946295 -37.71256350 86.26946295 -0.00073547 -3.43227831
4151700000 -0.00073724 -4.03363955 -37.70214069 86.26497737 -37.70214069 86.26497737 -0.00073724 -3.43640570
4156690000 -0.00073901 -4.03848329 -37.69173045 86.26049181 -37.69173045 86.26049181 -0.00073901 -3.44053309
4161680000 -0.00074078 -4.04332701 -37.68133276 86.25600626 -37.68133276 86.25600626 -0.00074078 -3.44466046
4166670000 -0.00074255 -4.04817072 -37.67094758 86.25152073 -37.67094758 86.25152073 -0.00074255 -3.44878782
4171660000 -0.00074433 -4.05301441 -37.66057489 86.24703521 -37.66057489 86.24703521 -0.00074433 -3.45291517
4176650000 -0.00074611 -4.05785809 -37.65021465 86.24254970 -37.65021465 86.24254970 -0.00074611 -3.45704252
4181640000 -0.00074789 -4.06270175 -37.63986684 86.23806420 -37.63986684 86.23806420 -0.00074789 -3.46116985
4186630000 -0.00074967 -4.06754540 -37.62953143 86.23357872 -37.62953143 86.23357872 -0.00074967 -3.46529717
4191620000 -0.00075145 -4.07238902 -37.61920838 86.22909325 -37.61920838 86.22909325 -0.00075145 -3.46942448
4196610000 -0.00075324 -4.07723264 -37.60889767 86.22460779 -37.60889767 86.22460779 -0.00075324 -3.47355178
4201600000 -0.00075503 -4.08207624 -37.59859927 86.22012235 -37.59859927 86.22012235 -0.00075503 -3.47767907
4206590000 -0.00075682 -4.08691982 -37.58831315 86.21563692 -37.58831315 86.21563692 -0.00075682 -3.48180635
4211580000 -0.00075861 -4.09176338 -37.57803928 86.21115150 -37.57803928 86.21115150 -0.00075861 -3.48593361
4216570000 -0.00076040 -4.09660693 -37.56777763 86.20666610 -37.56777763 86.20666610 -0.00076040 -3.49006087
4221560000 -0.00076220 -4.10145047 -37.55752817 86.20218071 -37.55752817 86.20218071 -0.00076220 -3.49418812
4226550000 -0.00076400 -4.10629398 -37.54729088 86.19769533 -37.54729088 86.19769533 -0.00076400 -3.49831535
4231540000 -0.00076580 -4.11113748 -37.53706572 86.19320997 -37.53706572 86.19320997 -0.00076580 -3.50244258
4236530000 -0.00076760 -4.11598097 -37.52685266 86.18872462 -37.52685266 86.18872462 -0.00076760 -3.50656980
4241520000 -0.00076941 -4.12082444 -37.51665169 86.18423928 -37.51665169 86.18423928 -0.00076941 -3.51069700
4246510000 -0.00077122 -4.12566789 -37.50646276 86.17975396 -37.50646276 86.17975396 -0.00077122 -3.51482419
4251500000 -0.00077303 -4.13051133 -37.49628586 86.17526865 -37.49628586 86.17526865 -0.00077303 -3.51895138
4256490000 -0.00077484 -4.13535475 -37.48612095 86.17078335 -37.48612095 86.17078335 -0.00077484 -3.52307855
4261480000 -0.00077665 -4.14019816 -37.47596801 86.16629806 -37.47596801 86.16629806 -0.00077665 -3.52720571
4266470000 -0.00077847 -4.14504155 -37.46582700 86.16181279 -37.46582700 86.16181279 -0.00077847 -3.53133286
4271460000 -0.00078029 -4.14988492 -37.45569790 86.15732754 -37.45569790 86.15732754 -0.00078029 -3.53546000
4276450000 -0.00078211 -4.15472828 -37.44558068 86.15284229 -37.44558068 86.15284229 -0.00078211 -3.53958713
4281440000 -0.00078393 -4.15957162 -37.43547532 86.14835706 -37.43547532 86.14835706 -0.00078393 -3.54371425
4286430000 -0.00078575 -4.16441495 -37.42538179 86.14387185 -37.42538179 86.14387185 -0.00078575 -3.54784136
4291420000 -0.00078758 -4.16925825 -37.41530005 86.13938664 -37.41530005 86.13938664 -0.00078758 -3.55196846
4296410000 -0.00078941 -4.17410155 -37.40523008 86.13490145 -37.40523008 86.13490145 -0.00078941 -3.55609555
4301400000 -0.00079124 -4.17894482 -37.39517186 86.13041628 -37.39517186 86.13041628 -0.00079124 -3.56022262
4306390000 -0.00079307 -4.18378808 -37.38512536 86.12593111 -37.38512536 86.12593111 -0.00079307 -3.56434969
4311380000 -0.00079490 -4.18863133 -37.37509055 86.12144596 -37.37509055 86.12144596 -0.00079490 -3.56847674
4316370000 -0.00079674 -4.19347455 -37.36506740 86.11696083 -37.36506740 86.11696083 -0.00079674 -3.57260379
4321360000 -0.00079858 -4.19831777 -37.35505588 86.11247571 -37.35505588 86.11247571 -0.00079858 -3.57673082
4326350000 -0.00080042 -4.20316096 -37.34505598 86.10799060 -37.34505598 86.10799060 -0.00080042 -3.58085784
4331340000 -0.00080226 -4.20800414 -37.33506766 86.10350550 -37.33506766 86.10350550 -0.00080226 -3.58498485
4336330000 -0.00080411 -4.21284730 -37.32509090 86.09902042 -37.32509090 86.09902042 -0.00080411 -3.58911186
4341320000 -0.00080596 -4.21769045 -37.31512566 86.09453535 -37.31512566 86.09453535 -0.00080596 -3.59323885
4346310000 -0.00080781 -4.22253358 -37.30517193 86.09005030 -37.30517193 86.09005030 -0.00080781 -3.59736582
4351300000 -0.00080966 -4.22737669 -37.29522967 86.08556526 -37.29522967 86.08556526 -0.00080966 -3.60149279
4356290000 -0.00081151 -4.23221979 -37.28529887 86.08108023 -37.28529887 86.08108023 -0.00081151 -3.60561975
4361280000 -0.00081337 -4.23706287 -37.27537949 86.07659522 -37.27537949 86.07659522 -0.00081337 -3.60974670
4366270000 -0.00081523 -4.24190593 -37.26547151 86.07211022 -37.26547151 86.07211022 -0.00081523 -3.61387363
4371260000 -0.00081709 -4.24674898 -37.25557490 86.06762523 -37.25557490 86.06762523 -0.00081709 -3.61800056
4376250000 -0.00081895 -4.25159201 -37.24568964 86.06314026 -37.24568964 86.06314026 -0.00081895 -3.62212747
4381240000 -0.00082081 -4.25643502 -37.23581570 86.05865530 -37.23581570 86.05865530 -0.00082081 -3.62625437
4386230000 -0.00082268 -4.26127802 -37.22595305 86.05417036 -37.22595305 86.05417036 -0.00082268 -3.63038126
4391220000 -0.00082455 -4.26612100 -37.21610168 86.04968543 -37.21610168 86.04968543 -0.00082455 -3.63450814
4396210000 -0.00082642 -4.27096396 -37.20626155 86.04520051 -37.20626155 86.04520051 -0.00082642 -3.63863501
4401200000 -0.00082829 -4.27580691 -37.19643263 86.04071561 -37.19643263 86.04071561 -0.00082829 -3.64276187
4406190000 -0.00083016 -4.28064984 -37.18661491 86.03623072 -37.18661491 86.03623072 -0.00083016 -3.64688872
4411180000 -0.00083204 -4.28549276 -37.17680836 86.03174584 -37.17680836 86.03174584 -0.00083204 -3.65101556
4416170000 -0.00083392 -4.29033566 -37.16701295 86.02726098 -37.16701295 86.02726098 -0.00083392 -3.65514238
4421160000 -0.00083580 -4.29517854 -37.15722866 86.02277613 -37.15722866 86.02277613 -0.00083580 -3.65926920
4426150000 -0.00083768 -4.30002140 -37.14745546 86.01829130 -37.14745546 86.01829130 -0.00083768 -3.66339600
4431140000 -0.00083957 -4.30486425 -37.13769333 86.01380648 -37.13769333 86.01380648 -0.00083957 -3.66752279
4436130000 -0.00084146 -4.30970708 -37.12794224 86.00932167 -37.12794224 86.00932167 -0.00084146 -3.67164957
4441120000 -0.00084335 -4.31454990 -37.11820217 86.00483688 -37.11820217 86.00483688 -0.00084335 -3.67577634
4446110000 -0.00084524 -4.31939269 -37.10847309 86.00035210 -37.10847309 86.00035210 -0.00084524 -3.67990310
4451100000 -0.00084713 -4.32423547 -37.09875498 85.99586734 -37.09875498 85.99586734 -0.00084713 -3.68402985
4456090000 -0.00084903 -4.32907824 -37.08904782 85.99138259 -37.08904782 85.99138259 -0.00084903 -3.68815659
4461080000 -0.00085093 -4.33392099 -37.07935157 85.98689785 -37.07935157 85.98689785 -0.00085093 -3.69228331
4466070000 -0.00085283 -4.33876372 -37.06966622 85.98241313 -37.06966622 85.98241313 -0.00085283 -3.69641002
4471060000 -0.00085473 -4.34360643 -37.05999174 85.97792842 -37.05999174 85.97792842 -0.00085473 -3.70053673
4476050000 -0.00085663 -4.34844913 -37.05032811 85.97344373 -37.05032811 85.97344373 -0.00085663 -3.70466342
4481040000 -0.00085854 -4.35329181 -37.04067530 85.96895905 -37.04067530 85.96895905 -0.00085854 -3.70879010
4486030000 -0.00086045 -4.35813447 -37.03103329 85.96447438 -37.03103329 85.96447438 -0.00086045 -3.71291677
4491020000 -0.00086236 -4.36297711 -37.02140206 85.95998973 -37.02140206 85.95998973 -0.00086236 -3.71704343
4496010000 -0.00086427 -4.36781974 -37.01178158 85.95550509 -37.01178158 85.95550509 -0.00086427 -3.72117008
4501000000 -0.00086618 -4.37266236 -37.00217182 85.95102047 -37.00217182 85.95102047 -0.00086618 -3.72529671
4505990000 -0.00086810 -4.37750495 -36.99257277 85.94653586 -36.99257277 85.94653586 -0.00086810 -3.72942334
4510980000 -0.00087002 -4.38234753 -36.98298439 85.94205126 -36.98298439 85.94205126 -0.00087002 -3.73354995
4515970000 -0.00087194 -4.38719009 -36.97340668 85.93756668 -36.97340668 85.93756668 -0.00087194 -3.73767655
4520960000 -0.00087386 -4.39203263 -36.96383959 85.93308211 -36.96383959 85.93308211 -0.00087386 -3.74180314
4525950000 -0.00087579 -4.39687516 -36.95428312 85.92859756 -36.95428312 85.92859756 -0.00087579 -3.74592972
4530940000 -0.00087772 -4.40171767 -36.94473723 85.92411302 -36.94473723 85.92411302 -0.00087772 -3.75005629
4535930000 -0.00087965 -4.40656016 -36.93520191 85.91962850 -36.93520191 85.91962850 -0.00087965 -3.75418285
4540920000 -0.00088158 -4.41140264 -36.92567712 85.91514399 -36.92567712 85.91514399 -0.00088158 -3.75830939
4545910000 -0.00088351 -4.41624510 -36.91616285 85.91065949 -36.91616285 85.91065949 -0.00088351 -3.76243592
4550900000 -0.00088545 -4.42108754 -36.90665908 85.90617501 -36.90665908 85.90617501 -0.00088545 -3.76656245
4555890000 -0.00088739 -4.42592996 -36.89716577 85.90169054 -36.89716577 85.90169054 -0.00088739 -3.77068896
4560880000 -0.00088932 -4.43077237 -36.88768292 85.89720609 -36.88768292 85.89720609 -0.00088932 -3.77481546
4565870000 -0.00089127 -4.43561476 -36.87821048 85.89272165 -36.87821048 85.89272165 -0.00089127 -3.77894195
4570860000 -0.00089321 -4.44045713 -36.86874845 85.88823722 -36.86874845 85.88823722 -0.00089321 -3.78306842
4575850000 -0.00089516 -4.44529949 -36.85929680 85.88375281 -36.85929680 85.88375281 -0.00089516 -3.78719489
4580840000 -0.00089711 -4.45014182 -36.84985551 85.87926842 -36.84985551 85.87926842 -0.00089711 -3.79132134
4585830000 -0.00089906 -4.45498414 -36.84042455 85.87478404 -36.84042455 85.87478404 -0.00089906 -3.79544778
4590820000 -0.00090101 -4.45982645 -36.83100391 85.87029967 -36.83100391 85.87029967 -0.00090101 -3.79957422
4595810000 -0.00090296 -4.46466873 -36.82159355 85.86581532 -36.82159355 85.86581532 -0.00090296 -3.80370064
4600800000 -0.00090492 -4.46951100 -36.81219346 85.86133098 -36.81219346 85.86133098 -0.00090492 -3.80782704
4605790000 -0.00090688 -4.47435325 -36.80280362 85.85684665 -36.80280362 85.85684665 -0.00090688 -3.81195344
4610780000 -0.00090884 -4.47919549 -36.79342400 85.85236234 -36.79342400 85.85236234 -0.00090884 -3.81607982
4615770000 -0.00091080 -4.48403770 -36.78405458 85.84787805 -36.78405458 85.84787805 -0.00091080 -3.82020620
4620760000 -0.00091277 -4.48887990 -36.77469534 85.84339377 -36.77469534 85.84339377 -0.00091277 -3.82433256
4625750000 -0.00091474 -4.49372208 -36.76534626 85.83890950 -36.76534626 85.83890950 -0.00091474 -3.82845891
4630740000 -0.00091670 -4.49856425 -36.75600732 85.83442525 -36.75600732 85.83442525 -0.00091670 -3.83258525
4635730000 -0.00091868 -4.50340639 -36.74667848 85.82994101 -36.74667848 85.82994101 -0.00091868 -3.83671158
4640720000 -0.00092065 -4.50824852 -36.73735974 85.82545679 -36.73735974 85.82545679 -0.00092065 -3.84083789
4645710000 -0.00092263 -4.51309063 -36.72805107 85.82097258 -36.72805107 85.82097258 -0.00092263 -3.84496420
4650700000 -0.00092460 -4.51793273 -36.71875245 85.81648839 -36.71875245 85.81648839 -0.00092460 -3.84909049
4655690000 -0.00092658 -4.52277480 -36.70946386 85.81200421 -36.70946386 85.81200421 -0.00092658 -3.85321677
4660680000 -0.00092856 -4.52761686 -36.70018527 85.80752005 -36.70018527 85.80752005 -0.00092856 -3.85734304
4665670000 -0.00093055 -4.53245891 -36.69091666 85.80303590 -36.69091666 85.80303590 -0.00093055 -3.86146930
4670660000 -0.00093253 -4.53730093 -36.68165802 85.79855177 -36.68165802 85.79855177 -0.00093253 -3.86559554
4675650000 -0.00093452 -4.54214294 -36.67240932 85.79406765 -36.67240932 85.79406765 -0.00093452 -3.86972177
4680640000 -0.00093651 -4.54698492 -36.66317055 85.78958354 -36.66317055 85.78958354 -0.00093651 -3.87384800
4685630000 -0.00093851 -4.55182689 -36.65394167 85.78509945 -36.65394167 85.78509945 -0.00093851 -3.87797421
4690620000 -0.00094050 -4.55666885 -36.64472267 85.78061537 -36.64472267 85.78061537 -0.00094050 -3.88210041
4695610000 -0.00094250 -4.56151078 -36.63551353 85.77613131 -36.63551353 85.77613131 -0.00094250 -3.88622659
4700600000 -0.00094450 -4.56635270 -36.62631422 85.77164727 -36.62631422 85.77164727 -0.00094450 -3.89035277
4705590000 -0.00094650 -4.57119460 -36.61712473 85.76716323 -36.61712473 85.76716323 -0.00094650 -3.89447893
4710580000 -0.00094850 -4.57603648 -36.60794504 85.76267922 -36.60794504 85.76267922 -0.00094850 -3.89860508
4715570000 -0.00095050 -4.58087835 -36.59877512 85.75819521 -36.59877512 85.75819521 -0.00095050 -3.90273122
4720560000 -0.00095251 -4.58572019 -36.58961496 85.75371123 -36.58961496 85.75371123 -0.00095251 -3.90685735
4725550000 -0.00095452 -4.59056202 -36.58046453 85.74922725 -36.58046453 85.74922725 -0.00095452 -3.91098347
4730540000 -0.00095653 -4.59540383 -36.57132381 85.74474330 -36.57132381 85.74474330 -0.00095653 -3.91510957
4735530000 -0.00095855 -4.60024563 -36.56219279 85.74025935 -36.56219279 85.74025935 -0.00095855 -3.91923567
4740520000 -0.00096056 -4.60508740 -36.55307143 85.73577543 -36.55307143 85.73577543 -0.00096056 -3.92336175
4745510000 -0.00096258 -4.60992916 -36.54395973 85.73129151 -36.54395973 85.73129151 -0.00096258 -3.92748782
4750500000 -0.00096460 -4.61477090 -36.53485766 85.72680761 -36.53485766 85.72680761 -0.00096460 -3.93161387
4755490000 -0.00096662 -4.61961262 -36.52576520 85.72232373 -36.52576520 85.72232373 -0.00096662 -3.93573992
4760480000 -0.00096864 -4.62445432 -36.51668234 85.71783986 -36.51668234 85.71783986 -0.00096864 -3.93986595
4765470000 -0.00097067 -4.62929601 -36.50760904 85.71335601 -36.50760904 85.71335601 -0.00097067 -3.94399197
4770460000 -0.00097270 -4.63413768 -36.49854530 85.70887217 -36.49854530 85.70887217 -0.00097270 -3.94811798
4775450000 -0.00097473 -4.63897933 -36.48949109 85.70438835 -36.48949109 85.70438835 -0.00097473 -3.95224398
4780440000 -0.00097676 -4.64382096 -36.48044639 85.69990454 -36.48044639 85.69990454 -0.00097676 -3.95636997
4785430000 -0.00097880 -4.64866257 -36.47141118 85.69542074 -36.47141118 85.69542074 -0.00097880 -3.96049594
4790420000 -0.00098083 -4.65350417 -36.46238544 85.69093697 -36.46238544 85.69093697 -0.00098083 -3.96462190
4795410000 -0.00098287 -4.65834574 -36.45336916 85.68645320 -36.45336916 85.68645320 -0.00098287 -3.96874785
4800400000 -0.00098491 -4.66318730 -36.44436231 85.68196945 -36.44436231 85.68196945 -0.00098491 -3.97287379
4805390000 -0.00098695 -4.66802884 -36.43536487 85.67748572 -36.43536487 85.67748572 -0.00098695 -3.97699971
4810380000 -0.00098900 -4.67287037 -36.42637683 85.67300200 -36.42637683 85.67300200 -0.00098900 -3.98112563
4815370000 -0.00099105 -4.67771187 -36.41739816 85.66851830 -36.41739816 85.66851830 -0.00099105 -3.98525153
4820360000 -0.00099310 -4.68255336 -36.40842885 85.66403461 -36.40842885 85.66403461 -0.00099310 -3.98937742
4825350000 -0.00099515 -4.68739483 -36.39946887 85.65955094 -36.39946887 85.65955094 -0.00099515 -3.99350330
4830340000 -0.00099720 -4.69223628 -36.39051821 85.65506728 -36.39051821 85.65506728 -0.00099720 -3.99762916
4835330000 -0.00099926 -4.69707771 -36.38157684 85.65058364 -36.38157684 85.65058364 -0.00099926 -4.00175501
4840320000 -0.00100131 -4.70191912 -36.37264476 85.64610001 -36.37264476 85.64610001 -0.00100131 -4.00588086
4845310000 -0.00100337 -4.70676052 -36.36372193 85.64161640 -36.36372193 85.64161640 -0.00100337 -4.01000669
4850300000 -0.00100543 -4.71160190 -36.35480834 85.63713280 -36.35480834 85.63713280 -0.00100543 -4.01413250
4855290000 -0.00100750 -4.71644326 -36.34590398 85.63264922 -36.34590398 85.63264922 -0.00100750 -4.01825831
4860280000 -0.00100956 -4.72128460 -36.33700881 85.62816565 -36.33700881 85.62816565 -0.00100956 -4.02238410
4865270000 -0.00101163 -4.72612592 -36.32812284 85.62368210 -36.32812284 85.62368210 -0.00101163 -4.02650988
4870260000 -0.00101370 -4.73096722 -36.31924602 85.61919856 -36.31924602 85.61919856 -0.00101370 -4.03063565
4875250000 -0.00101577 -4.73580851 -36.31037835 85.61471504 -36.31037835 85.61471504 -0.00101577 -4.03476140
4880240000 -0.00101785 -4.74064978 -36.30151981 85.61023154 -36.30151981 85.61023154 -0.00101785 -4.03888715
4885230000 -0.00101993 -4.74549102 -36.29267038 85.60574805 -36.29267038 85.60574805 -0.00101993 -4.04301288
4890220000 -0.00102200 -4.75033226 -36.28383003 85.60126457 -36.28383003 85.60126457 -0.00102200 -4.04713860
4895210000 -0.00102408 -4.75517347 -36.27499876 85.59678111 -36.27499876 85.59678111 -0.00102408 -4.05126431
4900200000 -0.00102617 -4.76001466 -36.26617655 85.59229767 -36.26617655 85.59229767 -0.00102617 -4.05539000
4905190000 -0.00102825 -4.76485584 -36.25736336 85.58781424 -36.25736336 85.58781424 -0.00102825 -4.05951569
4910180000 -0.00103034 -4.76969699 -36.24855920 85.58333083 -36.24855920 85.58333083 -0.00103034 -4.06364136
4915170000 -0.00103243 -4.77453813 -36.23976403 85.57884743 -36.23976403 85.57884743 -0.00103243 -4.06776701
4920160000 -0.00103452 -4.77937925 -36.23097784 85.57436405 -36.23097784 85.57436405 -0.00103452 -4.07189266
4925150000 -0.00103661 -4.78422035 -36.22220062 85.56988068 -36.22220062 85.56988068 -0.00103661 -4.07601829
4930140000 -0.00103871 -4.78906143 -36.21343234 85.56539733 -36.21343234 85.56539733 -0.00103871 -4.08014391
4935130000 -0.00104080 -4.79390250 -36.20467298 85.56091399 -36.20467298 85.56091399 -0.00104080 -4.08426952
4940120000 -0.00104290 -4.79874354 -36.19592253 85.55643067 -36.19592253 85.55643067 -0.00104290 -4.08839512
4945110000 -0.00104501 -4.80358457 -36.18718097 85.55194736 -36.18718097 85.55194736 -0.00104501 -4.09252070
4950100000 -0.00104711 -4.80842558 -36.17844829 85.54746407 -36.17844829 85.54746407 -0.00104711 -4.09664628
4955090000 -0.00104921 -4.81326656 -36.16972446 85.54298080 -36.16972446 85.54298080 -0.00104921 -4.10077184
4960080000 -0.00105132 -4.81810753 -36.16100946 85.53849754 -36.16100946 85.53849754 -0.00105132 -4.10489738
4965070000 -0.00105343 -4.82294849 -36.15230329 85.53401430 -36.15230329 85.53401430 -0.00105343 -4.10902292
4970060000 -0.00105554 -4.82778942 -36.14360591 85.52953107 -36.14360591 85.52953107 -0.00105554 -4.11314844
4975050000 -0.00105766 -4.83263033 -36.13491732 85.52504786 -36.13491732 85.52504786 -0.00105766 -4.11727395
4980040000 -0.00105977 -4.83747123 -36.12623749 85.52056466 -36.12623749 85.52056466 -0.00105977 -4.12139945
4985030000 -0.00106189 -4.84231211 -36.11756642 85.51608148 -36.11756642 85.51608148 -0.00106189 -4.12552493
4990020000 -0.00106401 -4.84715296 -36.10890407 85.51159832 -36.10890407 85.51159832 -0.00106401 -4.12965040
4995010000 -0.00106614 -4.85199380 -36.10025044 85.50711517 -36.10025044 85.50711517 -0.00106614 -4.13377586
5000000000 -0.00106826 -4.85683462 -36.09160550 85.50263203 -36.09160550 85.50263203 -0.00106826 -4.13790131