! Forward-simulated: Short dummy (pads + leads, device shorted)
!   Cpbe_fF = 22.0
!   Cpce_fF = 18.0
!   Cpbc_fF = 5.0
!   Lb_pH = 45.0
!   Lc_pH = 42.0
!   Le_pH = 6.0
# Hz S DB R 50
10000000 -0.00000000 179.99265600 -96.43217782 89.99287200 -96.43217782 89.99287200 -0.00000000 179.99308800
14990000 -0.00000000 179.98899134 -92.91614519 89.98931513 -92.91614519 89.98931513 -0.00000000 179.98963891
19980000 -0.00000000 179.98532669 -90.42026820 89.98575826 -90.42026820 89.98575826 -0.00000000 179.98618982
24970000 -0.00000001 179.98166203 -88.48380708 89.98220138 -88.48380708 89.98220138 -0.00000001 179.98274074
29960000 -0.00000001 179.97799738 -86.90134180 89.97864451 -86.90134180 89.97864451 -0.00000001 179.97929165
34950000 -0.00000001 179.97433272 -85.56323444 89.97508764 -85.56323444 89.97508764 -0.00000001 179.97584256
39940000 -0.00000002 179.97066806 -84.40401691 89.97153077 -84.40401691 89.97153077 -0.00000002 179.97239347
44930000 -0.00000002 179.96700341 -83.38144983 89.96797389 -83.38144983 89.96797389 -0.00000002 179.96894438
49920000 -0.00000002 179.96333875 -82.46668676 89.96441702 -82.46668676 89.96441702 -0.00000002 179.96549529
54910000 -0.00000003 179.95967409 -81.63914953 89.96086015 -81.63914953 89.96086015 -0.00000003 179.96204620
59900000 -0.00000004 179.95600943 -80.88364207 89.95730327 -80.88364207 89.95730327 -0.00000004 179.95859712
64890000 -0.00000004 179.95234478 -80.18862316 89.95374640 -80.18862316 89.95374640 -0.00000004 179.95514803
69880000 -0.00000005 179.94868012 -79.54512085 89.95018953 -79.54512085 89.95018953 -0.00000005 179.95169894
74870000 -0.00000006 179.94501546 -78.94602226 89.94663265 -78.94602226 89.94663265 -0.00000006 179.94824985
79860000 -0.00000006 179.94135080 -78.38559296 89.94307578 -78.38559296 89.94307578 -0.00000006 179.94480076
84850000 -0.00000007 179.93768614 -77.85914231 89.93951891 -77.85914231 89.93951891 -0.00000007 179.94135167
89840000 -0.00000008 179.93402148 -77.36278455 89.93596203 -77.36278455 89.93596203 -0.00000008 179.93790258
94830000 -0.00000009 179.93035682 -76.89326459 89.93240516 -76.89326459 89.93240516 -0.00000009 179.93445349
99820000 -0.00000010 179.92669216 -76.44782848 89.92884828 -76.44782848 89.92884828 -0.00000010 179.93100440
104810000 -0.00000011 179.92302750 -76.02412558 89.92529140 -76.02412558 89.92529140 -0.00000011 179.92755530
109800000 -0.00000012 179.91936284 -75.62013341 89.92173453 -75.62013341 89.92173453 -0.00000012 179.92410621
114790000 -0.00000013 179.91569818 -75.23409932 89.91817765 -75.23409932 89.91817765 -0.00000013 179.92065712
119780000 -0.00000014 179.91203352 -74.86449450 89.91462077 -74.86449450 89.91462077 -0.00000014 179.91720803
124770000 -0.00000015 179.90836886 -74.50997742 89.91106390 -74.50997742 89.91106390 -0.00000015 179.91375894
129760000 -0.00000017 179.90470419 -74.16936444 89.90750702 -74.16936444 89.90750702 -0.00000017 179.91030984
134750000 -0.00000018 179.90103953 -73.84160596 89.90395014 -73.84160596 89.90395014 -0.00000018 179.90686075
139740000 -0.00000019 179.89737487 -73.52576693 89.90039326 -73.52576693 89.90039326 -0.00000019 179.90341166
144730000 -0.00000021 179.89371020 -73.22101075 89.89683638 -73.22101075 89.89683638 -0.00000021 179.89996256
149720000 -0.00000022 179.89004554 -72.92658592 89.89327950 -72.92658592 89.89327950 -0.00000022 179.89651347
154710000 -0.00000024 179.88638087 -72.64181487 89.88972262 -72.64181487 89.88972262 -0.00000024 179.89306437
159700000 -0.00000025 179.88271621 -72.36608459 89.88616574 -72.36608459 89.88616574 -0.00000025 179.88961528
164690000 -0.00000027 179.87905154 -72.09883864 89.88260886 -72.09883864 89.88260886 -0.00000027 179.88616618
169680000 -0.00000028 179.87538687 -71.83957046 89.87905198 -71.83957046 89.87905198 -0.00000028 179.88271709
174670000 -0.00000030 179.87172220 -71.58781751 89.87549509 -71.58781751 89.87549509 -0.00000030 179.87926799
179660000 -0.00000032 179.86805753 -71.34315636 89.87193821 -71.34315636 89.87193821 -0.00000032 179.87581889
184650000 -0.00000034 179.86439286 -71.10519839 89.86838133 -71.10519839 89.86838133 -0.00000034 179.87236979
189640000 -0.00000036 179.86072819 -70.87358607 89.86482444 -70.87358607 89.86482444 -0.00000036 179.86892069
194630000 -0.00000037 179.85706352 -70.64798974 89.86126756 -70.64798974 89.86126756 -0.00000037 179.86547159
199620000 -0.00000039 179.85339885 -70.42810476 89.85771067 -70.42810476 89.85771067 -0.00000039 179.86202249
204610000 -0.00000041 179.84973417 -70.21364908 89.85415378 -70.21364908 89.85415378 -0.00000041 179.85857339
209600000 -0.00000043 179.84606950 -70.00436104 89.85059690 -70.00436104 89.85059690 -0.00000043 179.85512429
214590000 -0.00000045 179.84240483 -69.79999743 89.84704001 -69.79999743 89.84704001 -0.00000045 179.85167519
219580000 -0.00000048 179.83874015 -69.60033185 89.84348312 -69.60033185 89.84348312 -0.00000048 179.84822609
224570000 -0.00000050 179.83507547 -69.40515313 89.83992623 -69.40515313 89.83992623 -0.00000050 179.84477699
229560000 -0.00000052 179.83141079 -69.21426404 89.83636934 -69.21426404 89.83636934 -0.00000052 179.84132788
234550000 -0.00000054 179.82774612 -69.02748008 89.83281245 -69.02748008 89.83281245 -0.00000054 179.83787878
239540000 -0.00000057 179.82408144 -68.84462839 89.82925556 -68.84462839 89.82925556 -0.00000057 179.83442967
244530000 -0.00000059 179.82041676 -68.66554682 89.82569866 -68.66554682 89.82569866 -0.00000059 179.83098057
249520000 -0.00000061 179.81675207 -68.49008304 89.82214177 -68.49008304 89.82214177 -0.00000061 179.82753146
254510000 -0.00000064 179.81308739 -68.31809376 89.81858487 -68.31809376 89.81858487 -0.00000064 179.82408235
259500000 -0.00000067 179.80942271 -68.14944405 89.81502798 -68.14944405 89.81502798 -0.00000067 179.82063325
264490000 -0.00000069 179.80575802 -67.98400669 89.81147108 -67.98400669 89.81147108 -0.00000069 179.81718414
269480000 -0.00000072 179.80209334 -67.82166158 89.80791418 -67.82166158 89.80791418 -0.00000072 179.81373503
274470000 -0.00000074 179.79842865 -67.66229525 89.80435728 -67.66229525 89.80435728 -0.00000074 179.81028592
279460000 -0.00000077 179.79476396 -67.50580035 89.80080038 -67.50580035 89.80080038 -0.00000077 179.80683681
284450000 -0.00000080 179.79109927 -67.35207525 89.79724348 -67.35207525 89.79724348 -0.00000080 179.80338769
289440000 -0.00000083 179.78743458 -67.20102360 89.79368658 -67.20102360 89.79368658 -0.00000083 179.79993858
294430000 -0.00000086 179.78376989 -67.05255399 89.79012968 -67.05255399 89.79012968 -0.00000086 179.79648947
299420000 -0.00000089 179.78010519 -66.90657964 89.78657277 -66.90657964 89.78657277 -0.00000089 179.79304035
304410000 -0.00000092 179.77644050 -66.76301807 89.78301587 -66.76301807 89.78301587 -0.00000092 179.78959124
309400000 -0.00000095 179.77277580 -66.62179080 89.77945896 -66.62179080 89.77945896 -0.00000095 179.78614212
314390000 -0.00000098 179.76911111 -66.48282313 89.77590206 -66.48282313 89.77590206 -0.00000098 179.78269300
319380000 -0.00000101 179.76544641 -66.34604391 89.77234515 -66.34604391 89.77234515 -0.00000101 179.77924388
324370000 -0.00000104 179.76178171 -66.21138527 89.76878824 -66.21138527 89.76878824 -0.00000104 179.77579477
329360000 -0.00000107 179.75811701 -66.07878246 89.76523133 -66.07878246 89.76523133 -0.00000107 179.77234564
334350000 -0.00000110 179.75445231 -65.94817365 89.76167441 -65.94817365 89.76167441 -0.00000110 179.76889652
339340000 -0.00000114 179.75078760 -65.81949976 89.75811750 -65.81949976 89.75811750 -0.00000114 179.76544740
344330000 -0.00000117 179.74712290 -65.69270431 89.75456059 -65.69270431 89.75456059 -0.00000117 179.76199828
349320000 -0.00000121 179.74345819 -65.56773322 89.75100367 -65.56773322 89.75100367 -0.00000121 179.75854915
354310000 -0.00000124 179.73979348 -65.44453476 89.74744675 -65.44453476 89.74744675 -0.00000124 179.75510003
359300000 -0.00000127 179.73612877 -65.32305933 89.74388984 -65.32305933 89.74388984 -0.00000127 179.75165090
364290000 -0.00000131 179.73246406 -65.20325940 89.74033292 -65.20325940 89.74033292 -0.00000131 179.74820177
369280000 -0.00000135 179.72879935 -65.08508938 89.73677600 -65.08508938 89.73677600 -0.00000135 179.74475264
374270000 -0.00000138 179.72513463 -64.96850553 89.73321907 -64.96850553 89.73321907 -0.00000138 179.74130351
379260000 -0.00000142 179.72146992 -64.85346581 89.72966215 -64.85346581 89.72966215 -0.00000142 179.73785438
384250000 -0.00000146 179.71780520 -64.73992986 89.72610523 -64.73992986 89.72610523 -0.00000146 179.73440525
389240000 -0.00000150 179.71414048 -64.62785888 89.72254830 -64.62785888 89.72254830 -0.00000150 179.73095612
394230000 -0.00000153 179.71047576 -64.51721554 89.71899137 -64.51721554 89.71899137 -0.00000153 179.72750698
399220000 -0.00000157 179.70681104 -64.40796393 89.71543444 -64.40796393 89.71543444 -0.00000157 179.72405785
404210000 -0.00000161 179.70314631 -64.30006947 89.71187751 -64.30006947 89.71187751 -0.00000161 179.72060871
409200000 -0.00000165 179.69948159 -64.19349885 89.70832058 -64.19349885 89.70832058 -0.00000165 179.71715957
414190000 -0.00000169 179.69581686 -64.08821999 89.70476365 -64.08821999 89.70476365 -0.00000169 179.71371043
419180000 -0.00000174 179.69215213 -63.98420194 89.70120671 -63.98420194 89.70120671 -0.00000174 179.71026129
424170000 -0.00000178 179.68848740 -63.88141487 89.69764978 -63.88141487 89.69764978 -0.00000178 179.70681215
429160000 -0.00000182 179.68482267 -63.77982998 89.69409284 -63.77982998 89.69409284 -0.00000182 179.70336301
434150000 -0.00000186 179.68115793 -63.67941946 89.69053590 -63.67941946 89.69053590 -0.00000186 179.69991386
439140000 -0.00000190 179.67749320 -63.58015649 89.68697896 -63.58015649 89.68697896 -0.00000190 179.69646472
444130000 -0.00000195 179.67382846 -63.48201513 89.68342201 -63.48201513 89.68342201 -0.00000195 179.69301557
449120000 -0.00000199 179.67016372 -63.38497032 89.67986507 -63.38497032 89.67986507 -0.00000199 179.68956642
454110000 -0.00000204 179.66649897 -63.28899781 89.67630812 -63.28899781 89.67630812 -0.00000204 179.68611727
459100000 -0.00000208 179.66283423 -63.19407418 89.67275118 -63.19407418 89.67275118 -0.00000208 179.68266812
464090000 -0.00000213 179.65916948 -63.10017675 89.66919423 -63.10017675 89.66919423 -0.00000213 179.67921897
469080000 -0.00000217 179.65550474 -63.00728356 89.66563728 -63.00728356 89.66563728 -0.00000217 179.67576981
474070000 -0.00000222 179.65183999 -62.91537337 89.66208032 -62.91537337 89.66208032 -0.00000222 179.67232066
479060000 -0.00000227 179.64817523 -62.82442559 89.65852337 -62.82442559 89.65852337 -0.00000227 179.66887150
484050000 -0.00000231 179.64451048 -62.73442026 89.65496641 -62.73442026 89.65496641 -0.00000231 179.66542234
489040000 -0.00000236 179.64084572 -62.64533807 89.65140945 -62.64533807 89.65140945 -0.00000236 179.66197318
494030000 -0.00000241 179.63718097 -62.55716026 89.64785250 -62.55716026 89.64785250 -0.00000241 179.65852402
499020000 -0.00000246 179.63351621 -62.46986867 89.64429553 -62.46986867 89.64429553 -0.00000246 179.65507486
504010000 -0.00000251 179.62985144 -62.38344564 89.64073857 -62.38344564 89.64073857 -0.00000251 179.65162570
509000000 -0.00000256 179.62618668 -62.29787407 89.63718161 -62.29787407 89.63718161 -0.00000256 179.64817653
513990000 -0.00000261 179.62252191 -62.21313735 89.63362464 -62.21313735 89.63362464 -0.00000261 179.64472736
518980000 -0.00000266 179.61885715 -62.12921934 89.63006767 -62.12921934 89.63006767 -0.00000266 179.64127819
523970000 -0.00000271 179.61519237 -62.04610438 89.62651070 -62.04610438 89.62651070 -0.00000271 179.63782902
528960000 -0.00000276 179.61152760 -61.96377723 89.62295373 -61.96377723 89.62295373 -0.00000276 179.63437985
533950000 -0.00000282 179.60786283 -61.88222312 89.61939675 -61.88222312 89.61939675 -0.00000282 179.63093068
538940000 -0.00000287 179.60419805 -61.80142765 89.61583978 -61.80142765 89.61583978 -0.00000287 179.62748150
543930000 -0.00000292 179.60053327 -61.72137684 89.61228280 -61.72137684 89.61228280 -0.00000292 179.62403233
548920000 -0.00000298 179.59686849 -61.64205709 89.60872582 -61.64205709 89.60872582 -0.00000298 179.62058315
553910000 -0.00000303 179.59320370 -61.56345517 89.60516884 -61.56345517 89.60516884 -0.00000303 179.61713397
558900000 -0.00000308 179.58953892 -61.48555821 89.60161185 -61.48555821 89.60161185 -0.00000308 179.61368479
563890000 -0.00000314 179.58587413 -61.40835366 89.59805486 -61.40835366 89.59805486 -0.00000314 179.61023560
568880000 -0.00000320 179.58220934 -61.33182934 89.59449788 -61.33182934 89.59449788 -0.00000320 179.60678642
573870000 -0.00000325 179.57854454 -61.25597336 89.59094089 -61.25597336 89.59094089 -0.00000325 179.60333723
578860000 -0.00000331 179.57487974 -61.18077414 89.58738389 -61.18077414 89.58738389 -0.00000331 179.59988804
583850000 -0.00000337 179.57121495 -61.10622042 89.58382690 -61.10622042 89.58382690 -0.00000337 179.59643885
588840000 -0.00000342 179.56755014 -61.03230120 89.58026990 -61.03230120 89.58026990 -0.00000342 179.59298966
593830000 -0.00000348 179.56388534 -60.95900579 89.57671290 -60.95900579 89.57671290 -0.00000348 179.58954047
598820000 -0.00000354 179.56022054 -60.88632372 89.57315590 -60.88632372 89.57315590 -0.00000354 179.58609127
603810000 -0.00000360 179.55655573 -60.81424484 89.56959890 -60.81424484 89.56959890 -0.00000360 179.58264207
608800000 -0.00000366 179.55289092 -60.74275920 89.56604189 -60.74275920 89.56604189 -0.00000366 179.57919287
613790000 -0.00000372 179.54922610 -60.67185713 89.56248489 -60.67185713 89.56248489 -0.00000372 179.57574367
618780000 -0.00000378 179.54556129 -60.60152917 89.55892788 -60.60152917 89.55892788 -0.00000378 179.57229447
623770000 -0.00000384 179.54189647 -60.53176610 89.55537086 -60.53176610 89.55537086 -0.00000384 179.56884526
628760000 -0.00000390 179.53823164 -60.46255892 89.55181385 -60.46255892 89.55181385 -0.00000390 179.56539606
633750000 -0.00000397 179.53456682 -60.39389884 89.54825683 -60.39389884 89.54825683 -0.00000397 179.56194685
638740000 -0.00000403 179.53090199 -60.32577728 89.54469982 -60.32577728 89.54469982 -0.00000403 179.55849764
643730000 -0.00000409 179.52723716 -60.25818586 89.54114279 -60.25818586 89.54114279 -0.00000409 179.55504842
648720000 -0.00000416 179.52357233 -60.19111639 89.53758577 -60.19111639 89.53758577 -0.00000416 179.55159921
653710000 -0.00000422 179.51990750 -60.12456087 89.53402874 -60.12456087 89.53402874 -0.00000422 179.54814999
658700000 -0.00000428 179.51624266 -60.05851148 89.53047172 -60.05851148 89.53047172 -0.00000428 179.54470078
663690000 -0.00000435 179.51257782 -59.99296059 89.52691469 -59.99296059 89.52691469 -0.00000435 179.54125155
668680000 -0.00000442 179.50891297 -59.92790073 89.52335765 -59.92790073 89.52335765 -0.00000442 179.53780233
673670000 -0.00000448 179.50524813 -59.86332460 89.51980062 -59.86332460 89.51980062 -0.00000448 179.53435311
678660000 -0.00000455 179.50158328 -59.79922505 89.51624358 -59.79922505 89.51624358 -0.00000455 179.53090388
683650000 -0.00000462 179.49791843 -59.73559510 89.51268654 -59.73559510 89.51268654 -0.00000462 179.52745465
688640000 -0.00000468 179.49425357 -59.67242793 89.50912950 -59.67242793 89.50912950 -0.00000468 179.52400542
693630000 -0.00000475 179.49058871 -59.60971685 89.50557245 -59.60971685 89.50557245 -0.00000475 179.52055619
698620000 -0.00000482 179.48692385 -59.54745532 89.50201540 -59.54745532 89.50201540 -0.00000482 179.51710695
703610000 -0.00000489 179.48325899 -59.48563695 89.49845835 -59.48563695 89.49845835 -0.00000489 179.51365772
708600000 -0.00000496 179.47959412 -59.42425547 89.49490130 -59.42425547 89.49490130 -0.00000496 179.51020848
713590000 -0.00000503 179.47592925 -59.36330474 89.49134425 -59.36330474 89.49134425 -0.00000503 179.50675924
718580000 -0.00000510 179.47226438 -59.30277877 89.48778719 -59.30277877 89.48778719 -0.00000510 179.50330999
723570000 -0.00000517 179.46859951 -59.24267168 89.48423013 -59.24267168 89.48423013 -0.00000517 179.49986075
728560000 -0.00000524 179.46493463 -59.18297771 89.48067306 -59.18297771 89.48067306 -0.00000524 179.49641150
733550000 -0.00000531 179.46126975 -59.12369121 89.47711600 -59.12369121 89.47711600 -0.00000531 179.49296225
738540000 -0.00000539 179.45760486 -59.06480667 89.47355893 -59.06480667 89.47355893 -0.00000539 179.48951300
743530000 -0.00000546 179.45393997 -59.00631867 89.47000186 -59.00631867 89.47000186 -0.00000546 179.48606374
748520000 -0.00000553 179.45027508 -58.94822191 89.46644478 -58.94822191 89.46644478 -0.00000553 179.48261449
753510000 -0.00000561 179.44661019 -58.89051118 89.46288771 -58.89051118 89.46288771 -0.00000561 179.47916523
758500000 -0.00000568 179.44294529 -58.83318140 89.45933063 -58.83318140 89.45933063 -0.00000568 179.47571597
763490000 -0.00000576 179.43928039 -58.77622756 89.45577355 -58.77622756 89.45577355 -0.00000576 179.47226670
768480000 -0.00000583 179.43561549 -58.71964477 89.45221646 -58.71964477 89.45221646 -0.00000583 179.46881744
773470000 -0.00000591 179.43195058 -58.66342822 89.44865937 -58.66342822 89.44865937 -0.00000591 179.46536817
778460000 -0.00000598 179.42828567 -58.60757321 89.44510228 -58.60757321 89.44510228 -0.00000598 179.46191890
783450000 -0.00000606 179.42462076 -58.55207511 89.44154519 -58.55207511 89.44154519 -0.00000606 179.45846963
788440000 -0.00000614 179.42095584 -58.49692940 89.43798810 -58.49692940 89.43798810 -0.00000614 179.45502035
793430000 -0.00000622 179.41729092 -58.44213162 89.43443100 -58.44213162 89.43443100 -0.00000622 179.45157107
798420000 -0.00000630 179.41362600 -58.38767741 89.43087389 -58.38767741 89.43087389 -0.00000630 179.44812179
803410000 -0.00000637 179.40996107 -58.33356250 89.42731679 -58.33356250 89.42731679 -0.00000637 179.44467251
808400000 -0.00000645 179.40629614 -58.27978267 89.42375968 -58.27978267 89.42375968 -0.00000645 179.44122323
813390000 -0.00000653 179.40263120 -58.22633382 89.42020257 -58.22633382 89.42020257 -0.00000653 179.43777394
818380000 -0.00000661 179.39896627 -58.17321188 89.41664546 -58.17321188 89.41664546 -0.00000661 179.43432465
823370000 -0.00000669 179.39530133 -58.12041288 89.41308834 -58.12041288 89.41308834 -0.00000669 179.43087536
828360000 -0.00000678 179.39163638 -58.06793293 89.40953122 -58.06793293 89.40953122 -0.00000678 179.42742606
833350000 -0.00000686 179.38797144 -58.01576819 89.40597410 -58.01576819 89.40597410 -0.00000686 179.42397677
838340000 -0.00000694 179.38430648 -57.96391489 89.40241698 -57.96391489 89.40241698 -0.00000694 179.42052747
843330000 -0.00000702 179.38064153 -57.91236934 89.39885985 -57.91236934 89.39885985 -0.00000702 179.41707816
848320000 -0.00000711 179.37697657 -57.86112791 89.39530272 -57.86112791 89.39530272 -0.00000711 179.41362886
853310000 -0.00000719 179.37331161 -57.81018703 89.39174558 -57.81018703 89.39174558 -0.00000719 179.41017955
858300000 -0.00000727 179.36964664 -57.75954319 89.38818844 -57.75954319 89.38818844 -0.00000727 179.40673024
863290000 -0.00000736 179.36598168 -57.70919296 89.38463130 -57.70919296 89.38463130 -0.00000736 179.40328093
868280000 -0.00000745 179.36231670 -57.65913294 89.38107416 -57.65913294 89.38107416 -0.00000745 179.39983161
873270000 -0.00000753 179.35865173 -57.60935982 89.37751701 -57.60935982 89.37751701 -0.00000753 179.39638230
878260000 -0.00000762 179.35498675 -57.55987032 89.37395986 -57.55987032 89.37395986 -0.00000762 179.39293298
883250000 -0.00000770 179.35132176 -57.51066123 89.37040271 -57.51066123 89.37040271 -0.00000770 179.38948365
888240000 -0.00000779 179.34765678 -57.46172939 89.36684555 -57.46172939 89.36684555 -0.00000779 179.38603433
893230000 -0.00000788 179.34399179 -57.41307169 89.36328839 -57.41307169 89.36328839 -0.00000788 179.38258500
898220000 -0.00000797 179.34032679 -57.36468508 89.35973123 -57.36468508 89.35973123 -0.00000797 179.37913567
903210000 -0.00000806 179.33666179 -57.31656655 89.35617406 -57.31656655 89.35617406 -0.00000806 179.37568633
908200000 -0.00000815 179.33299679 -57.26871316 89.35261689 -57.26871316 89.35261689 -0.00000815 179.37223700
913190000 -0.00000824 179.32933178 -57.22112199 89.34905972 -57.22112199 89.34905972 -0.00000824 179.36878766
918180000 -0.00000833 179.32566677 -57.17379019 89.34550254 -57.17379019 89.34550254 -0.00000833 179.36533832
923170000 -0.00000842 179.32200176 -57.12671495 89.34194537 -57.12671495 89.34194537 -0.00000842 179.36188897
928160000 -0.00000851 179.31833674 -57.07989350 89.33838818 -57.07989350 89.33838818 -0.00000851 179.35843962
933150000 -0.00000860 179.31467172 -57.03332311 89.33483100 -57.03332311 89.33483100 -0.00000860 179.35499027
938140000 -0.00000869 179.31100669 -56.98700112 89.33127381 -56.98700112 89.33127381 -0.00000869 179.35154092
943130000 -0.00000878 179.30734166 -56.94092488 89.32771661 -56.94092488 89.32771661 -0.00000878 179.34809156
948120000 -0.00000888 179.30367663 -56.89509181 89.32415942 -56.89509181 89.32415942 -0.00000888 179.34464220
953110000 -0.00000897 179.30001159 -56.84949934 89.32060222 -56.84949934 89.32060222 -0.00000897 179.34119284
958100000 -0.00000907 179.29634655 -56.80414498 89.31704502 -56.80414498 89.31704502 -0.00000907 179.33774348
963090000 -0.00000916 179.29268151 -56.75902623 89.31348781 -56.75902623 89.31348781 -0.00000916 179.33429411
968080000 -0.00000925 179.28901646 -56.71414067 89.30993060 -56.71414067 89.30993060 -0.00000925 179.33084474
973070000 -0.00000935 179.28535140 -56.66948591 89.30637338 -56.66948591 89.30637338 -0.00000935 179.32739537
978060000 -0.00000945 179.28168634 -56.62505957 89.30281617 -56.62505957 89.30281617 -0.00000945 179.32394599
983050000 -0.00000954 179.27802128 -56.58085934 89.29925895 -56.58085934 89.29925895 -0.00000954 179.32049661
988040000 -0.00000964 179.27435622 -56.53688292 89.29570172 -56.53688292 89.29570172 -0.00000964 179.31704723
993030000 -0.00000974 179.27069115 -56.49312806 89.29214449 -56.49312806 89.29214449 -0.00000974 179.31359784
998020000 -0.00000984 179.26702607 -56.44959254 89.28858726 -56.44959254 89.28858726 -0.00000984 179.31014846
1003010000 -0.00000993 179.26336099 -56.40627417 89.28503003 -56.40627417 89.28503003 -0.00000993 179.30669906
1008000000 -0.00001003 179.25969591 -56.36317080 89.28147279 -56.36317080 89.28147279 -0.00001003 179.30324967
1012990000 -0.00001013 179.25603082 -56.32028030 89.27791555 -56.32028030 89.27791555 -0.00001013 179.29980027
1017980000 -0.00001023 179.25236573 -56.27760059 89.27435830 -56.27760059 89.27435830 -0.00001023 179.29635087
1022970000 -0.00001033 179.24870064 -56.23512959 89.27080105 -56.23512959 89.27080105 -0.00001033 179.29290147
1027960000 -0.00001044 179.24503554 -56.19286528 89.26724380 -56.19286528 89.26724380 -0.00001044 179.28945206
1032950000 -0.00001054 179.24137043 -56.15080565 89.26368654 -56.15080565 89.26368654 -0.00001054 179.28600265
1037940000 -0.00001064 179.23770532 -56.10894874 89.26012928 -56.10894874 89.26012928 -0.00001064 179.28255324
1042930000 -0.00001074 179.23404021 -56.06729260 89.25657202 -56.06729260 89.25657202 -0.00001074 179.27910382
1047920000 -0.00001084 179.23037509 -56.02583531 89.25301475 -56.02583531 89.25301475 -0.00001084 179.27565440
1052910000 -0.00001095 179.22670997 -55.98457499 89.24945748 -55.98457499 89.24945748 -0.00001095 179.27220498
1057900000 -0.00001105 179.22304484 -55.94350977 89.24590020 -55.94350977 89.24590020 -0.00001105 179.26875556
1062890000 -0.00001116 179.21937971 -55.90263781 89.24234292 -55.90263781 89.24234292 -0.00001116 179.26530613
1067880000 -0.00001126 179.21571458 -55.86195731 89.23878564 -55.86195731 89.23878564 -0.00001126 179.26185670
1072870000 -0.00001137 179.21204944 -55.82146647 89.23522835 -55.82146647 89.23522835 -0.00001137 179.25840726
1077860000 -0.00001147 179.20838429 -55.78116355 89.23167106 -55.78116355 89.23167106 -0.00001147 179.25495782
1082850000 -0.00001158 179.20471914 -55.74104680 89.22811376 -55.74104680 89.22811376 -0.00001158 179.25150838
1087840000 -0.00001169 179.20105399 -55.70111451 89.22455646 -55.70111451 89.22455646 -0.00001169 179.24805893
1092830000 -0.00001179 179.19738883 -55.66136500 89.22099916 -55.66136500 89.22099916 -0.00001179 179.24460949
1097820000 -0.00001190 179.19372367 -55.62179659 89.21744185 -55.62179659 89.21744185 -0.00001190 179.24116004
1102810000 -0.00001201 179.19005850 -55.58240765 89.21388454 -55.58240765 89.21388454 -0.00001201 179.23771058
1107800000 -0.00001212 179.18639333 -55.54319656 89.21032723 -55.54319656 89.21032723 -0.00001212 179.23426112
1112790000 -0.00001223 179.18272815 -55.50416171 89.20676991 -55.50416171 89.20676991 -0.00001223 179.23081166
1117780000 -0.00001234 179.17906297 -55.46530153 89.20321258 -55.46530153 89.20321258 -0.00001234 179.22736220
1122770000 -0.00001245 179.17539779 -55.42661447 89.19965526 -55.42661447 89.19965526 -0.00001245 179.22391273
1127760000 -0.00001256 179.17173260 -55.38809899 89.19609793 -55.38809899 89.19609793 -0.00001256 179.22046326
1132750000 -0.00001267 179.16806740 -55.34975356 89.19254059 -55.34975356 89.19254059 -0.00001267 179.21701378
1137740000 -0.00001278 179.16440220 -55.31157671 89.18898325 -55.31157671 89.18898325 -0.00001278 179.21356430
1142730000 -0.00001290 179.16073700 -55.27356695 89.18542591 -55.27356695 89.18542591 -0.00001290 179.21011482
1147720000 -0.00001301 179.15707179 -55.23572283 89.18186856 -55.23572283 89.18186856 -0.00001301 179.20666533
1152710000 -0.00001312 179.15340657 -55.19804291 89.17831121 -55.19804291 89.17831121 -0.00001312 179.20321585
1157700000 -0.00001324 179.14974135 -55.16052577 89.17475385 -55.16052577 89.17475385 -0.00001324 179.19976635
1162690000 -0.00001335 179.14607613 -55.12317001 89.17119649 -55.12317001 89.17119649 -0.00001335 179.19631686
1167680000 -0.00001346 179.14241090 -55.08597426 89.16763913 -55.08597426 89.16763913 -0.00001346 179.19286736
1172670000 -0.00001358 179.13874566 -55.04893713 89.16408176 -55.04893713 89.16408176 -0.00001358 179.18941786
1177660000 -0.00001370 179.13508042 -55.01205730 89.16052439 -55.01205730 89.16052439 -0.00001370 179.18596835
1182650000 -0.00001381 179.13141518 -54.97533342 89.15696701 -54.97533342 89.15696701 -0.00001381 179.18251884
1187640000 -0.00001393 179.12774993 -54.93876419 89.15340963 -54.93876419 89.15340963 -0.00001393 179.17906933
1192630000 -0.00001405 179.12408468 -54.90234831 89.14985224 -54.90234831 89.14985224 -0.00001405 179.17561981
1197620000 -0.00001416 179.12041942 -54.86608449 89.14629485 -54.86608449 89.14629485 -0.00001416 179.17217029
1202610000 -0.00001428 179.11675415 -54.82997147 89.14273746 -54.82997147 89.14273746 -0.00001428 179.16872076
1207600000 -0.00001440 179.11308888 -54.79400801 89.13918006 -54.79400801 89.13918006 -0.00001440 179.16527123
1212590000 -0.00001452 179.10942361 -54.75819287 89.13562266 -54.75819287 89.13562266 -0.00001452 179.16182170
1217580000 -0.00001464 179.10575833 -54.72252484 89.13206525 -54.72252484 89.13206525 -0.00001464 179.15837217
1222570000 -0.00001476 179.10209305 -54.68700270 89.12850784 -54.68700270 89.12850784 -0.00001476 179.15492263
1227560000 -0.00001488 179.09842776 -54.65162528 89.12495042 -54.65162528 89.12495042 -0.00001488 179.15147309
1232550000 -0.00001500 179.09476246 -54.61639139 89.12139300 -54.61639139 89.12139300 -0.00001500 179.14802354
1237540000 -0.00001512 179.09109716 -54.58129987 89.11783558 -54.58129987 89.11783558 -0.00001512 179.14457399
1242530000 -0.00001525 179.08743186 -54.54634959 89.11427815 -54.54634959 89.11427815 -0.00001525 179.14112444
1247520000 -0.00001537 179.08376655 -54.51153941 89.11072071 -54.51153941 89.11072071 -0.00001537 179.13767488
1252510000 -0.00001549 179.08010123 -54.47686821 89.10716327 -54.47686821 89.10716327 -0.00001549 179.13422532
1257500000 -0.00001562 179.07643591 -54.44233489 89.10360583 -54.44233489 89.10360583 -0.00001562 179.13077575
1262490000 -0.00001574 179.07277058 -54.40793835 89.10004838 -54.40793835 89.10004838 -0.00001574 179.12732618
1267480000 -0.00001586 179.06910525 -54.37367751 89.09649093 -54.37367751 89.09649093 -0.00001586 179.12387661
1272470000 -0.00001599 179.06543991 -54.33955131 89.09293347 -54.33955131 89.09293347 -0.00001599 179.12042703
1277460000 -0.00001611 179.06177457 -54.30555870 89.08937601 -54.30555870 89.08937601 -0.00001611 179.11697745
1282450000 -0.00001624 179.05810922 -54.27169863 89.08581855 -54.27169863 89.08581855 -0.00001624 179.11352787
1287440000 -0.00001637 179.05444387 -54.23797007 89.08226107 -54.23797007 89.08226107 -0.00001637 179.11007828
1292430000 -0.00001649 179.05077851 -54.20437201 89.07870360 -54.20437201 89.07870360 -0.00001649 179.10662869
1297420000 -0.00001662 179.04711315 -54.17090344 89.07514612 -54.17090344 89.07514612 -0.00001662 179.10317909
1302410000 -0.00001675 179.04344778 -54.13756337 89.07158863 -54.13756337 89.07158863 -0.00001675 179.09972949
1307400000 -0.00001688 179.03978240 -54.10435081 89.06803114 -54.10435081 89.06803114 -0.00001688 179.09627989
1312390000 -0.00001701 179.03611702 -54.07126480 89.06447365 -54.07126480 89.06447365 -0.00001701 179.09283028
1317380000 -0.00001714 179.03245164 -54.03830436 89.06091615 -54.03830436 89.06091615 -0.00001714 179.08938067
1322370000 -0.00001727 179.02878624 -54.00546856 89.05735865 -54.00546856 89.05735865 -0.00001727 179.08593105
1327360000 -0.00001740 179.02512085 -53.97275645 89.05380114 -53.97275645 89.05380114 -0.00001740 179.08248143
1332350000 -0.00001753 179.02145544 -53.94016711 89.05024363 -53.94016711 89.05024363 -0.00001753 179.07903181
1337340000 -0.00001766 179.01779004 -53.90769961 89.04668611 -53.90769961 89.04668611 -0.00001766 179.07558218
1342330000 -0.00001779 179.01412462 -53.87535305 89.04312858 -53.87535305 89.04312858 -0.00001779 179.07213255
1347320000 -0.00001793 179.01045920 -53.84312654 89.03957106 -53.84312654 89.03957106 -0.00001793 179.06868291
1352310000 -0.00001806 179.00679378 -53.81101918 89.03601352 -53.81101918 89.03601352 -0.00001806 179.06523327
1357300000 -0.00001819 179.00312835 -53.77903010 89.03245599 -53.77903010 89.03245599 -0.00001819 179.06178363
1362290000 -0.00001833 178.99946291 -53.74715843 89.02889844 -53.74715843 89.02889844 -0.00001833 179.05833398
1367280000 -0.00001846 178.99579747 -53.71540332 89.02534090 -53.71540332 89.02534090 -0.00001846 179.05488433
1372270000 -0.00001860 178.99213202 -53.68376390 89.02178334 -53.68376390 89.02178334 -0.00001860 179.05143467
1377260000 -0.00001873 178.98846656 -53.65223934 89.01822579 -53.65223934 89.01822579 -0.00001873 179.04798501
1382250000 -0.00001887 178.98480110 -53.62082882 89.01466822 -53.62082882 89.01466822 -0.00001887 179.04453534
1387240000 -0.00001900 178.98113564 -53.58953151 89.01111066 -53.58953151 89.01111066 -0.00001900 179.04108568
1392230000 -0.00001914 178.97747017 -53.55834659 89.00755308 -53.55834659 89.00755308 -0.00001914 179.03763600
1397220000 -0.00001928 178.97380469 -53.52727326 89.00399551 -53.52727326 89.00399551 -0.00001928 179.03418632
1402210000 -0.00001942 178.97013921 -53.49631074 89.00043792 -53.49631074 89.00043792 -0.00001942 179.03073664
1407200000 -0.00001955 178.96647372 -53.46545822 88.99688034 -53.46545822 88.99688034 -0.00001955 179.02728696
1412190000 -0.00001969 178.96280822 -53.43471493 88.99332274 -53.43471493 88.99332274 -0.00001969 179.02383727
1417180000 -0.00001983 178.95914272 -53.40408011 88.98976515 -53.40408011 88.98976515 -0.00001983 179.02038757
1422170000 -0.00001997 178.95547721 -53.37355298 88.98620754 -53.37355298 88.98620754 -0.00001997 179.01693787
1427160000 -0.00002011 178.95181170 -53.34313279 88.98264994 -53.34313279 88.98264994 -0.00002011 179.01348817
1432150000 -0.00002025 178.94814618 -53.31281881 88.97909232 -53.31281881 88.97909232 -0.00002025 179.01003846
1437140000 -0.00002040 178.94448066 -53.28261028 88.97553470 -53.28261028 88.97553470 -0.00002040 179.00658875
1442130000 -0.00002054 178.94081512 -53.25250648 88.97197708 -53.25250648 88.97197708 -0.00002054 179.00313904
1447120000 -0.00002068 178.93714959 -53.22250668 88.96841945 -53.22250668 88.96841945 -0.00002068 178.99968932
1452110000 -0.00002082 178.93348404 -53.19261017 88.96486182 -53.19261017 88.96486182 -0.00002082 178.99623959
1457100000 -0.00002097 178.92981849 -53.16281624 88.96130418 -53.16281624 88.96130418 -0.00002097 178.99278986
1462090000 -0.00002111 178.92615294 -53.13312419 88.95774653 -53.13312419 88.95774653 -0.00002111 178.98934013
1467080000 -0.00002125 178.92248738 -53.10353333 88.95418888 -53.10353333 88.95418888 -0.00002125 178.98589039
1472070000 -0.00002140 178.91882181 -53.07404296 88.95063123 -53.07404296 88.95063123 -0.00002140 178.98244065
1477060000 -0.00002154 178.91515623 -53.04465241 88.94707357 -53.04465241 88.94707357 -0.00002154 178.97899090
1482050000 -0.00002169 178.91149065 -53.01536100 88.94351590 -53.01536100 88.94351590 -0.00002169 178.97554115
1487040000 -0.00002184 178.90782507 -52.98616807 88.93995823 -52.98616807 88.93995823 -0.00002184 178.97209139
1492030000 -0.00002198 178.90415947 -52.95707296 88.93640055 -52.95707296 88.93640055 -0.00002198 178.96864163
1497020000 -0.00002213 178.90049388 -52.92807501 88.93284287 -52.92807501 88.93284287 -0.00002213 178.96519187
1502010000 -0.00002228 178.89682827 -52.89917358 88.92928518 -52.89917358 88.92928518 -0.00002228 178.96174210
1507000000 -0.00002243 178.89316266 -52.87036802 88.92572749 -52.87036802 88.92572749 -0.00002243 178.95829232
1511990000 -0.00002257 178.88949704 -52.84165771 88.92216979 -52.84165771 88.92216979 -0.00002257 178.95484255
1516980000 -0.00002272 178.88583141 -52.81304202 88.91861209 -52.81304202 88.91861209 -0.00002272 178.95139276
1521970000 -0.00002287 178.88216578 -52.78452032 88.91505438 -52.78452032 88.91505438 -0.00002287 178.94794298
1526960000 -0.00002302 178.87850015 -52.75609200 88.91149666 -52.75609200 88.91149666 -0.00002302 178.94449318
1531950000 -0.00002317 178.87483450 -52.72775646 88.90793894 -52.72775646 88.90793894 -0.00002317 178.94104339
1536940000 -0.00002333 178.87116885 -52.69951307 88.90438122 -52.69951307 88.90438122 -0.00002333 178.93759359
1541930000 -0.00002348 178.86750320 -52.67136126 88.90082349 -52.67136126 88.90082349 -0.00002348 178.93414378
1546920000 -0.00002363 178.86383753 -52.64330043 88.89726575 -52.64330043 88.89726575 -0.00002363 178.93069397
1551910000 -0.00002378 178.86017186 -52.61532999 88.89370801 -52.61532999 88.89370801 -0.00002378 178.92724415
1556900000 -0.00002394 178.85650619 -52.58744936 88.89015026 -52.58744936 88.89015026 -0.00002394 178.92379433
1561890000 -0.00002409 178.85284050 -52.55965796 88.88659251 -52.55965796 88.88659251 -0.00002409 178.92034451
1566880000 -0.00002424 178.84917481 -52.53195524 88.88303475 -52.53195524 88.88303475 -0.00002424 178.91689468
1571870000 -0.00002440 178.84550912 -52.50434062 88.87947698 -52.50434062 88.87947698 -0.00002440 178.91344484
1576860000 -0.00002455 178.84184341 -52.47681354 88.87591921 -52.47681354 88.87591921 -0.00002455 178.90999500
1581850000 -0.00002471 178.83817771 -52.44937346 88.87236143 -52.44937346 88.87236143 -0.00002471 178.90654516
1586840000 -0.00002486 178.83451199 -52.42201982 88.86880365 -52.42201982 88.86880365 -0.00002486 178.90309531
1591830000 -0.00002502 178.83084627 -52.39475208 88.86524586 -52.39475208 88.86524586 -0.00002502 178.89964546
1596820000 -0.00002518 178.82718054 -52.36756971 88.86168807 -52.36756971 88.86168807 -0.00002518 178.89619560
1601810000 -0.00002534 178.82351480 -52.34047217 88.85813027 -52.34047217 88.85813027 -0.00002534 178.89274574
1606800000 -0.00002549 178.81984906 -52.31345893 88.85457246 -52.31345893 88.85457246 -0.00002549 178.88929587
1611790000 -0.00002565 178.81618331 -52.28652947 88.85101465 -52.28652947 88.85101465 -0.00002565 178.88584600
1616780000 -0.00002581 178.81251755 -52.25968328 88.84745684 -52.25968328 88.84745684 -0.00002581 178.88239612
1621770000 -0.00002597 178.80885179 -52.23291984 88.84389901 -52.23291984 88.84389901 -0.00002597 178.87894624
1626760000 -0.00002613 178.80518602 -52.20623863 88.84034118 -52.20623863 88.84034118 -0.00002613 178.87549635
1631750000 -0.00002629 178.80152024 -52.17963917 88.83678335 -52.17963917 88.83678335 -0.00002629 178.87204646
1636740000 -0.00002645 178.79785446 -52.15312094 88.83322551 -52.15312094 88.83322551 -0.00002645 178.86859656
1641730000 -0.00002661 178.79418867 -52.12668346 88.82966766 -52.12668346 88.82966766 -0.00002661 178.86514666
1646720000 -0.00002678 178.79052287 -52.10032624 88.82610981 -52.10032624 88.82610981 -0.00002678 178.86169675
1651710000 -0.00002694 178.78685706 -52.07404878 88.82255195 -52.07404878 88.82255195 -0.00002694 178.85824684
1656700000 -0.00002710 178.78319125 -52.04785061 88.81899409 -52.04785061 88.81899409 -0.00002710 178.85479692
1661690000 -0.00002727 178.77952543 -52.02173125 88.81543622 -52.02173125 88.81543622 -0.00002727 178.85134700
1666680000 -0.00002743 178.77585961 -51.99569023 88.81187834 -51.99569023 88.81187834 -0.00002743 178.84789707
1671670000 -0.00002759 178.77219378 -51.96972707 88.80832046 -51.96972707 88.80832046 -0.00002759 178.84444714
1676660000 -0.00002776 178.76852794 -51.94384133 88.80476257 -51.94384133 88.80476257 -0.00002776 178.84099720
1681650000 -0.00002792 178.76486209 -51.91803253 88.80120467 -51.91803253 88.80120467 -0.00002792 178.83754726
1686640000 -0.00002809 178.76119624 -51.89230022 88.79764677 -51.89230022 88.79764677 -0.00002809 178.83409731
1691630000 -0.00002826 178.75753038 -51.86664394 88.79408887 -51.86664394 88.79408887 -0.00002826 178.83064736
1696620000 -0.00002842 178.75386451 -51.84106326 88.79053095 -51.84106326 88.79053095 -0.00002842 178.82719740
1701610000 -0.00002859 178.75019863 -51.81555772 88.78697304 -51.81555772 88.78697304 -0.00002859 178.82374744
1706600000 -0.00002876 178.74653275 -51.79012689 88.78341511 -51.79012689 88.78341511 -0.00002876 178.82029747
1711590000 -0.00002893 178.74286686 -51.76477033 88.77985718 -51.76477033 88.77985718 -0.00002893 178.81684750
1716580000 -0.00002910 178.73920096 -51.73948760 88.77629924 -51.73948760 88.77629924 -0.00002910 178.81339752
1721570000 -0.00002927 178.73553506 -51.71427829 88.77274130 -51.71427829 88.77274130 -0.00002927 178.80994754
1726560000 -0.00002944 178.73186915 -51.68914196 88.76918335 -51.68914196 88.76918335 -0.00002944 178.80649755
1731550000 -0.00002961 178.72820323 -51.66407819 88.76562539 -51.66407819 88.76562539 -0.00002961 178.80304755
1736540000 -0.00002978 178.72453730 -51.63908656 88.76206743 -51.63908656 88.76206743 -0.00002978 178.79959755
1741530000 -0.00002995 178.72087137 -51.61416667 88.75850946 -51.61416667 88.75850946 -0.00002995 178.79614755
1746520000 -0.00003012 178.71720543 -51.58931810 88.75495148 -51.58931810 88.75495148 -0.00003012 178.79269754
1751510000 -0.00003029 178.71353948 -51.56454044 88.75139350 -51.56454044 88.75139350 -0.00003029 178.78924752
1756500000 -0.00003047 178.70987353 -51.53983330 88.74783552 -51.53983330 88.74783552 -0.00003047 178.78579750
1761490000 -0.00003064 178.70620756 -51.51519626 88.74427752 -51.51519626 88.74427752 -0.00003064 178.78234748
1766480000 -0.00003081 178.70254159 -51.49062894 88.74071952 -51.49062894 88.74071952 -0.00003081 178.77889745
1771470000 -0.00003099 178.69887562 -51.46613093 88.73716151 -51.46613093 88.73716151 -0.00003099 178.77544741
1776460000 -0.00003116 178.69520963 -51.44170186 88.73360350 -51.44170186 88.73360350 -0.00003116 178.77199737
1781450000 -0.00003134 178.69154364 -51.41734134 88.73004548 -51.41734134 88.73004548 -0.00003134 178.76854732
1786440000 -0.00003151 178.68787764 -51.39304897 88.72648746 -51.39304897 88.72648746 -0.00003151 178.76509727
1791430000 -0.00003169 178.68421163 -51.36882438 88.72292942 -51.36882438 88.72292942 -0.00003169 178.76164721
1796420000 -0.00003187 178.68054562 -51.34466720 88.71937138 -51.34466720 88.71937138 -0.00003187 178.75819715
1801410000 -0.00003204 178.67687959 -51.32057705 88.71581334 -51.32057705 88.71581334 -0.00003204 178.75474708
1806400000 -0.00003222 178.67321356 -51.29655355 88.71225529 -51.29655355 88.71225529 -0.00003222 178.75129701
1811390000 -0.00003240 178.66954753 -51.27259635 88.70869723 -51.27259635 88.70869723 -0.00003240 178.74784693
1816380000 -0.00003258 178.66588148 -51.24870507 88.70513916 -51.24870507 88.70513916 -0.00003258 178.74439684
1821370000 -0.00003276 178.66221543 -51.22487936 88.70158109 -51.22487936 88.70158109 -0.00003276 178.74094675
1826360000 -0.00003294 178.65854937 -51.20111885 88.69802301 -51.20111885 88.69802301 -0.00003294 178.73749666
1831350000 -0.00003312 178.65488330 -51.17742319 88.69446493 -51.17742319 88.69446493 -0.00003312 178.73404655
1836340000 -0.00003330 178.65121722 -51.15379204 88.69090683 -51.15379204 88.69090683 -0.00003330 178.73059645
1841330000 -0.00003348 178.64755114 -51.13022502 88.68734874 -51.13022502 88.68734874 -0.00003348 178.72714633
1846320000 -0.00003366 178.64388505 -51.10672181 88.68379063 -51.10672181 88.68379063 -0.00003366 178.72369622
1851310000 -0.00003384 178.64021895 -51.08328206 88.68023252 -51.08328206 88.68023252 -0.00003384 178.72024609
1856300000 -0.00003402 178.63655284 -51.05990541 88.67667440 -51.05990541 88.67667440 -0.00003402 178.71679596
1861290000 -0.00003421 178.63288672 -51.03659155 88.67311628 -51.03659155 88.67311628 -0.00003421 178.71334583
1866280000 -0.00003439 178.62922060 -51.01334012 88.66955814 -51.01334012 88.66955814 -0.00003439 178.70989569
1871270000 -0.00003458 178.62555447 -50.99015080 88.66600001 -50.99015080 88.66600001 -0.00003458 178.70644554
1876260000 -0.00003476 178.62188833 -50.96702326 88.66244186 -50.96702326 88.66244186 -0.00003476 178.70299539
1881250000 -0.00003495 178.61822218 -50.94395716 88.65888371 -50.94395716 88.65888371 -0.00003495 178.69954523
1886240000 -0.00003513 178.61455603 -50.92095218 88.65532555 -50.92095218 88.65532555 -0.00003513 178.69609507
1891230000 -0.00003532 178.61088987 -50.89800800 88.65176738 -50.89800800 88.65176738 -0.00003532 178.69264490
1896220000 -0.00003550 178.60722370 -50.87512430 88.64820921 -50.87512430 88.64820921 -0.00003550 178.68919472
1901210000 -0.00003569 178.60355752 -50.85230076 88.64465103 -50.85230076 88.64465103 -0.00003569 178.68574454
1906200000 -0.00003588 178.59989133 -50.82953707 88.64109285 -50.82953707 88.64109285 -0.00003588 178.68229436
1911190000 -0.00003607 178.59622514 -50.80683291 88.63753465 -50.80683291 88.63753465 -0.00003607 178.67884417
1916180000 -0.00003625 178.59255893 -50.78418797 88.63397645 -50.78418797 88.63397645 -0.00003625 178.67539397
1921170000 -0.00003644 178.58889272 -50.76160194 88.63041824 -50.76160194 88.63041824 -0.00003644 178.67194376
1926160000 -0.00003663 178.58522651 -50.73907453 88.62686003 -50.73907453 88.62686003 -0.00003663 178.66849356
1931150000 -0.00003682 178.58156028 -50.71660541 88.62330181 -50.71660541 88.62330181 -0.00003682 178.66504334
1936140000 -0.00003701 178.57789404 -50.69419431 88.61974358 -50.69419431 88.61974358 -0.00003701 178.66159312
1941130000 -0.00003721 178.57422780 -50.67184090 88.61618535 -50.67184090 88.61618535 -0.00003721 178.65814289
1946120000 -0.00003740 178.57056155 -50.64954491 88.61262710 -50.64954491 88.61262710 -0.00003740 178.65469266
1951110000 -0.00003759 178.56689529 -50.62730603 88.60906886 -50.62730603 88.60906886 -0.00003759 178.65124242
1956100000 -0.00003778 178.56322902 -50.60512398 88.60551060 -50.60512398 88.60551060 -0.00003778 178.64779218
1961090000 -0.00003797 178.55956275 -50.58299846 88.60195234 -50.58299846 88.60195234 -0.00003797 178.64434193
1966080000 -0.00003817 178.55589646 -50.56092919 88.59839407 -50.56092919 88.59839407 -0.00003817 178.64089167
1971070000 -0.00003836 178.55223017 -50.53891588 88.59483579 -50.53891588 88.59483579 -0.00003836 178.63744141
1976060000 -0.00003856 178.54856387 -50.51695825 88.59127750 -50.51695825 88.59127750 -0.00003856 178.63399114
1981050000 -0.00003875 178.54489756 -50.49505601 88.58771921 -50.49505601 88.58771921 -0.00003875 178.63054086
1986040000 -0.00003895 178.54123124 -50.47320890 88.58416091 -50.47320890 88.58416091 -0.00003895 178.62709058
1991030000 -0.00003914 178.53756491 -50.45141663 88.58060261 -50.45141663 88.58060261 -0.00003914 178.62364030
1996020000 -0.00003934 178.53389858 -50.42967893 88.57704429 -50.42967893 88.57704429 -0.00003934 178.62019001
2001010000 -0.00003954 178.53023224 -50.40799552 88.57348597 -50.40799552 88.57348597 -0.00003954 178.61673971
2006000000 -0.00003973 178.52656589 -50.38636614 88.56992764 -50.38636614 88.56992764 -0.00003973 178.61328940
2010990000 -0.00003993 178.52289953 -50.36479051 88.56636931 -50.36479051 88.56636931 -0.00003993 178.60983909
2015980000 -0.00004013 178.51923316 -50.34326838 88.56281097 -50.34326838 88.56281097 -0.00004013 178.60638878
2020970000 -0.00004033 178.51556678 -50.32179947 88.55925262 -50.32179947 88.55925262 -0.00004033 178.60293845
2025960000 -0.00004053 178.51190040 -50.30038353 88.55569426 -50.30038353 88.55569426 -0.00004053 178.59948812
2030950000 -0.00004073 178.50823400 -50.27902029 88.55213590 -50.27902029 88.55213590 -0.00004073 178.59603779
2035940000 -0.00004093 178.50456760 -50.25770949 88.54857752 -50.25770949 88.54857752 -0.00004093 178.59258745
2040930000 -0.00004113 178.50090119 -50.23645089 88.54501915 -50.23645089 88.54501915 -0.00004113 178.58913710
2045920000 -0.00004133 178.49723477 -50.21524421 88.54146076 -50.21524421 88.54146076 -0.00004133 178.58568675
2050910000 -0.00004153 178.49356834 -50.19408922 88.53790237 -50.19408922 88.53790237 -0.00004153 178.58223639
2055900000 -0.00004173 178.48990191 -50.17298565 88.53434396 -50.17298565 88.53434396 -0.00004173 178.57878602
2060890000 -0.00004194 178.48623546 -50.15193327 88.53078556 -50.15193327 88.53078556 -0.00004194 178.57533565
2065880000 -0.00004214 178.48256901 -50.13093181 88.52722714 -50.13093181 88.52722714 -0.00004214 178.57188527
2070870000 -0.00004234 178.47890254 -50.10998105 88.52366872 -50.10998105 88.52366872 -0.00004234 178.56843489
2075860000 -0.00004255 178.47523607 -50.08908072 88.52011028 -50.08908072 88.52011028 -0.00004255 178.56498450
2080850000 -0.00004275 178.47156959 -50.06823060 88.51655185 -50.06823060 88.51655185 -0.00004275 178.56153410
2085840000 -0.00004296 178.46790310 -50.04743044 88.51299340 -50.04743044 88.51299340 -0.00004296 178.55808370
2090830000 -0.00004316 178.46423660 -50.02667999 88.50943495 -50.02667999 88.50943495 -0.00004316 178.55463329
2095820000 -0.00004337 178.46057010 -50.00597903 88.50587648 -50.00597903 88.50587648 -0.00004337 178.55118287
2100810000 -0.00004358 178.45690358 -49.98532732 88.50231802 -49.98532732 88.50231802 -0.00004358 178.54773245
2105800000 -0.00004378 178.45323706 -49.96472463 88.49875954 -49.96472463 88.49875954 -0.00004378 178.54428202
2110790000 -0.00004399 178.44957052 -49.94417072 88.49520106 -49.94417072 88.49520106 -0.00004399 178.54083159
2115780000 -0.00004420 178.44590398 -49.92366536 88.49164256 -49.92366536 88.49164256 -0.00004420 178.53738114
2120770000 -0.00004441 178.44223743 -49.90320833 88.48808406 -49.90320833 88.48808406 -0.00004441 178.53393070
2125760000 -0.00004462 178.43857087 -49.88279939 88.48452556 -49.88279939 88.48452556 -0.00004462 178.53048024
2130750000 -0.00004483 178.43490430 -49.86243833 88.48096704 -49.86243833 88.48096704 -0.00004483 178.52702978
2135740000 -0.00004504 178.43123772 -49.84212491 88.47740852 -49.84212491 88.47740852 -0.00004504 178.52357931
2140730000 -0.00004525 178.42757114 -49.82185892 88.47384999 -49.82185892 88.47384999 -0.00004525 178.52012884
2145720000 -0.00004546 178.42390454 -49.80164013 88.47029145 -49.80164013 88.47029145 -0.00004546 178.51667836
2150710000 -0.00004567 178.42023794 -49.78146833 88.46673291 -49.78146833 88.46673291 -0.00004567 178.51322787
2155700000 -0.00004588 178.41657132 -49.76134330 88.46317435 -49.76134330 88.46317435 -0.00004588 178.50977738
2160690000 -0.00004610 178.41290470 -49.74126482 88.45961579 -49.74126482 88.45961579 -0.00004610 178.50632688
2165680000 -0.00004631 178.40923807 -49.72123267 88.45605722 -49.72123267 88.45605722 -0.00004631 178.50287638
2170670000 -0.00004652 178.40557143 -49.70124665 88.45249864 -49.70124665 88.45249864 -0.00004652 178.49942586
2175660000 -0.00004674 178.40190477 -49.68130654 88.44894006 -49.68130654 88.44894006 -0.00004674 178.49597534
2180650000 -0.00004695 178.39823812 -49.66141213 88.44538147 -49.66141213 88.44538147 -0.00004695 178.49252482
2185640000 -0.00004717 178.39457145 -49.64156322 88.44182287 -49.64156322 88.44182287 -0.00004717 178.48907429
2190630000 -0.00004738 178.39090477 -49.62175958 88.43826426 -49.62175958 88.43826426 -0.00004738 178.48562375
2195620000 -0.00004760 178.38723808 -49.60200103 88.43470564 -49.60200103 88.43470564 -0.00004760 178.48217320
2200610000 -0.00004781 178.38357138 -49.58228736 88.43114702 -49.58228736 88.43114702 -0.00004781 178.47872265
2205600000 -0.00004803 178.37990468 -49.56261835 88.42758838 -49.56261835 88.42758838 -0.00004803 178.47527209
2210590000 -0.00004825 178.37623796 -49.54299381 88.42402974 -49.54299381 88.42402974 -0.00004825 178.47182153
2215580000 -0.00004847 178.37257124 -49.52341355 88.42047110 -49.52341355 88.42047110 -0.00004847 178.46837095
2220570000 -0.00004869 178.36890450 -49.50387735 88.41691244 -49.50387735 88.41691244 -0.00004869 178.46492037
2225560000 -0.00004890 178.36523776 -49.48438502 88.41335378 -49.48438502 88.41335378 -0.00004890 178.46146979
2230550000 -0.00004912 178.36157101 -49.46493637 88.40979510 -49.46493637 88.40979510 -0.00004912 178.45801920
2235540000 -0.00004934 178.35790425 -49.44553120 88.40623642 -49.44553120 88.40623642 -0.00004934 178.45456860
2240530000 -0.00004956 178.35423748 -49.42616932 88.40267773 -49.42616932 88.40267773 -0.00004956 178.45111799
2245520000 -0.00004979 178.35057069 -49.40685053 88.39911904 -49.40685053 88.39911904 -0.00004979 178.44766738
2250510000 -0.00005001 178.34690390 -49.38757464 88.39556033 -49.38757464 88.39556033 -0.00005001 178.44421676
2255500000 -0.00005023 178.34323710 -49.36834146 88.39200162 -49.36834146 88.39200162 -0.00005023 178.44076613
2260490000 -0.00005045 178.33957029 -49.34915081 88.38844290 -49.34915081 88.38844290 -0.00005045 178.43731550
2265480000 -0.00005067 178.33590348 -49.33000250 88.38488417 -49.33000250 88.38488417 -0.00005067 178.43386486
2270470000 -0.00005090 178.33223665 -49.31089633 88.38132543 -49.31089633 88.38132543 -0.00005090 178.43041421
2275460000 -0.00005112 178.32856981 -49.29183214 88.37776668 -49.29183214 88.37776668 -0.00005112 178.42696356
2280450000 -0.00005135 178.32490296 -49.27280972 88.37420793 -49.27280972 88.37420793 -0.00005135 178.42351290
2285440000 -0.00005157 178.32123610 -49.25382890 88.37064917 -49.25382890 88.37064917 -0.00005157 178.42006223
2290430000 -0.00005180 178.31756924 -49.23488950 88.36709040 -49.23488950 88.36709040 -0.00005180 178.41661156
2295420000 -0.00005202 178.31390236 -49.21599133 88.36353162 -49.21599133 88.36353162 -0.00005202 178.41316088
2300410000 -0.00005225 178.31023548 -49.19713423 88.35997283 -49.19713423 88.35997283 -0.00005225 178.40971019
2305400000 -0.00005248 178.30656858 -49.17831800 88.35641404 -49.17831800 88.35641404 -0.00005248 178.40625949
2310390000 -0.00005270 178.30290167 -49.15954248 88.35285523 -49.15954248 88.35285523 -0.00005270 178.40280879
2315380000 -0.00005293 178.29923476 -49.14080748 88.34929642 -49.14080748 88.34929642 -0.00005293 178.39935808
2320370000 -0.00005316 178.29556783 -49.12211284 88.34573760 -49.12211284 88.34573760 -0.00005316 178.39590737
2325360000 -0.00005339 178.29190090 -49.10345838 88.34217877 -49.10345838 88.34217877 -0.00005339 178.39245664
2330350000 -0.00005362 178.28823395 -49.08484392 88.33861993 -49.08484392 88.33861993 -0.00005362 178.38900591
2335340000 -0.00005385 178.28456700 -49.06626931 88.33506109 -49.06626931 88.33506109 -0.00005385 178.38555517
2340330000 -0.00005408 178.28090004 -49.04773436 88.33150223 -49.04773436 88.33150223 -0.00005408 178.38210443
2345320000 -0.00005431 178.27723306 -49.02923890 88.32794337 -49.02923890 88.32794337 -0.00005431 178.37865368
2350310000 -0.00005454 178.27356608 -49.01078278 88.32438450 -49.01078278 88.32438450 -0.00005454 178.37520292
2355300000 -0.00005477 178.26989908 -48.99236582 88.32082562 -48.99236582 88.32082562 -0.00005477 178.37175215
2360290000 -0.00005500 178.26623208 -48.97398786 88.31726673 -48.97398786 88.31726673 -0.00005500 178.36830138
2365280000 -0.00005524 178.26256506 -48.95564873 88.31370783 -48.95564873 88.31370783 -0.00005524 178.36485060
2370270000 -0.00005547 178.25889804 -48.93734827 88.31014893 -48.93734827 88.31014893 -0.00005547 178.36139982
2375260000 -0.00005570 178.25523101 -48.91908632 88.30659001 -48.91908632 88.30659001 -0.00005570 178.35794902
2380250000 -0.00005594 178.25156396 -48.90086271 88.30303109 -48.90086271 88.30303109 -0.00005594 178.35449822
2385240000 -0.00005617 178.24789691 -48.88267728 88.29947216 -48.88267728 88.29947216 -0.00005617 178.35104741
2390230000 -0.00005641 178.24422985 -48.86452988 88.29591322 -48.86452988 88.29591322 -0.00005641 178.34759660
2395220000 -0.00005664 178.24056277 -48.84642035 88.29235427 -48.84642035 88.29235427 -0.00005664 178.34414577
2400210000 -0.00005688 178.23689569 -48.82834852 88.28879531 -48.82834852 88.28879531 -0.00005688 178.34069494
2405200000 -0.00005712 178.23322859 -48.81031425 88.28523635 -48.81031425 88.28523635 -0.00005712 178.33724410
2410190000 -0.00005735 178.22956149 -48.79231737 88.28167737 -48.79231737 88.28167737 -0.00005735 178.33379326
2415180000 -0.00005759 178.22589437 -48.77435774 88.27811839 -48.77435774 88.27811839 -0.00005759 178.33034241
2420170000 -0.00005783 178.22222725 -48.75643519 88.27455940 -48.75643519 88.27455940 -0.00005783 178.32689155
2425160000 -0.00005807 178.21856011 -48.73854958 88.27100040 -48.73854958 88.27100040 -0.00005807 178.32344068
2430150000 -0.00005831 178.21489297 -48.72070075 88.26744139 -48.72070075 88.26744139 -0.00005831 178.31998981
2435140000 -0.00005855 178.21122581 -48.70288856 88.26388237 -48.70288856 88.26388237 -0.00005855 178.31653893
2440130000 -0.00005879 178.20755865 -48.68511285 88.26032334 -48.68511285 88.26032334 -0.00005879 178.31308804
2445120000 -0.00005903 178.20389147 -48.66737347 88.25676431 -48.66737347 88.25676431 -0.00005903 178.30963714
2450110000 -0.00005927 178.20022429 -48.64967028 88.25320526 -48.64967028 88.25320526 -0.00005927 178.30618624
2455100000 -0.00005951 178.19655709 -48.63200312 88.24964621 -48.63200312 88.24964621 -0.00005951 178.30273533
2460090000 -0.00005975 178.19288988 -48.61437186 88.24608715 -48.61437186 88.24608715 -0.00005975 178.29928441
2465080000 -0.00005999 178.18922266 -48.59677634 88.24252807 -48.59677634 88.24252807 -0.00005999 178.29583348
2470070000 -0.00006024 178.18555544 -48.57921643 88.23896899 -48.57921643 88.23896899 -0.00006024 178.29238255
2475060000 -0.00006048 178.18188820 -48.56169198 88.23540990 -48.56169198 88.23540990 -0.00006048 178.28893161
2480050000 -0.00006072 178.17822095 -48.54420284 88.23185081 -48.54420284 88.23185081 -0.00006072 178.28548066
2485040000 -0.00006097 178.17455369 -48.52674887 88.22829170 -48.52674887 88.22829170 -0.00006097 178.28202970
2490030000 -0.00006121 178.17088642 -48.50932994 88.22473258 -48.50932994 88.22473258 -0.00006121 178.27857874
2495020000 -0.00006146 178.16721914 -48.49194590 88.22117346 -48.49194590 88.22117346 -0.00006146 178.27512777
2500010000 -0.00006171 178.16355185 -48.47459661 88.21761432 -48.47459661 88.21761432 -0.00006171 178.27167679
2505000000 -0.00006195 178.15988455 -48.45728194 88.21405518 -48.45728194 88.21405518 -0.00006195 178.26822581
2509990000 -0.00006220 178.15621724 -48.44000175 88.21049603 -48.44000175 88.21049603 -0.00006220 178.26477481
2514980000 -0.00006245 178.15254992 -48.42275589 88.20693686 -48.42275589 88.20693686 -0.00006245 178.26132381
2519970000 -0.00006270 178.14888258 -48.40554424 88.20337769 -48.40554424 88.20337769 -0.00006270 178.25787280
2524960000 -0.00006294 178.14521524 -48.38836665 88.19981851 -48.38836665 88.19981851 -0.00006294 178.25442179
2529950000 -0.00006319 178.14154789 -48.37122301 88.19625932 -48.37122301 88.19625932 -0.00006319 178.25097076
2534940000 -0.00006344 178.13788052 -48.35411316 88.19270013 -48.35411316 88.19270013 -0.00006344 178.24751973
2539930000 -0.00006369 178.13421315 -48.33703698 88.18914092 -48.33703698 88.18914092 -0.00006369 178.24406869
2544920000 -0.00006394 178.13054576 -48.31999433 88.18558170 -48.31999433 88.18558170 -0.00006394 178.24061765
2549910000 -0.00006419 178.12687836 -48.30298509 88.18202248 -48.30298509 88.18202248 -0.00006419 178.23716659
2554900000 -0.00006444 178.12321095 -48.28600912 88.17846324 -48.28600912 88.17846324 -0.00006444 178.23371553
2559890000 -0.00006470 178.11954354 -48.26906629 88.17490400 -48.26906629 88.17490400 -0.00006470 178.23026446
2564880000 -0.00006495 178.11587611 -48.25215648 88.17134474 -48.25215648 88.17134474 -0.00006495 178.22681338
2569870000 -0.00006520 178.11220867 -48.23527956 88.16778548 -48.23527956 88.16778548 -0.00006520 178.22336229
2574860000 -0.00006546 178.10854122 -48.21843540 88.16422621 -48.21843540 88.16422621 -0.00006546 178.21991120
2579850000 -0.00006571 178.10487375 -48.20162386 88.16066693 -48.20162386 88.16066693 -0.00006571 178.21646010
2584840000 -0.00006596 178.10120628 -48.18484483 88.15710764 -48.18484483 88.15710764 -0.00006596 178.21300899
2589830000 -0.00006622 178.09753880 -48.16809819 88.15354834 -48.16809819 88.15354834 -0.00006622 178.20955787
2594820000 -0.00006647 178.09387130 -48.15138380 88.14998903 -48.15138380 88.14998903 -0.00006647 178.20610675
2599810000 -0.00006673 178.09020380 -48.13470154 88.14642971 -48.13470154 88.14642971 -0.00006673 178.20265562
2604800000 -0.00006699 178.08653628 -48.11805129 88.14287038 -48.11805129 88.14287038 -0.00006699 178.19920448
2609790000 -0.00006724 178.08286876 -48.10143292 88.13931104 -48.10143292 88.13931104 -0.00006724 178.19575333
2614780000 -0.00006750 178.07920122 -48.08484632 88.13575169 -48.08484632 88.13575169 -0.00006750 178.19230217
2619770000 -0.00006776 178.07553367 -48.06829137 88.13219234 -48.06829137 88.13219234 -0.00006776 178.18885101
2624760000 -0.00006802 178.07186611 -48.05176794 88.12863297 -48.05176794 88.12863297 -0.00006802 178.18539984
2629750000 -0.00006827 178.06819854 -48.03527591 88.12507360 -48.03527591 88.12507360 -0.00006827 178.18194866
2634740000 -0.00006853 178.06453095 -48.01881516 88.12151421 -48.01881516 88.12151421 -0.00006853 178.17849747
2639730000 -0.00006879 178.06086336 -48.00238558 88.11795482 -48.00238558 88.11795482 -0.00006879 178.17504627
2644720000 -0.00006905 178.05719575 -47.98598705 88.11439541 -47.98598705 88.11439541 -0.00006905 178.17159507
2649710000 -0.00006931 178.05352814 -47.96961945 88.11083600 -47.96961945 88.11083600 -0.00006931 178.16814386
2654700000 -0.00006958 178.04986051 -47.95328267 88.10727657 -47.95328267 88.10727657 -0.00006958 178.16469264
2659690000 -0.00006984 178.04619287 -47.93697658 88.10371714 -47.93697658 88.10371714 -0.00006984 178.16124141
2664680000 -0.00007010 178.04252522 -47.92070108 88.10015770 -47.92070108 88.10015770 -0.00007010 178.15779017
2669670000 -0.00007036 178.03885756 -47.90445605 88.09659825 -47.90445605 88.09659825 -0.00007036 178.15433893
2674660000 -0.00007063 178.03518989 -47.88824137 88.09303878 -47.88824137 88.09303878 -0.00007063 178.15088768
2679650000 -0.00007089 178.03152221 -47.87205694 88.08947931 -47.87205694 88.08947931 -0.00007089 178.14743642
2684640000 -0.00007115 178.02785451 -47.85590264 88.08591983 -47.85590264 88.08591983 -0.00007115 178.14398515
2689630000 -0.00007142 178.02418681 -47.83977835 88.08236034 -47.83977835 88.08236034 -0.00007142 178.14053387
2694620000 -0.00007168 178.02051909 -47.82368398 88.07880084 -47.82368398 88.07880084 -0.00007168 178.13708259
2699610000 -0.00007195 178.01685136 -47.80761940 88.07524133 -47.80761940 88.07524133 -0.00007195 178.13363130
2704600000 -0.00007222 178.01318362 -47.79158450 88.07168181 -47.79158450 88.07168181 -0.00007222 178.13018000
2709590000 -0.00007248 178.00951587 -47.77557919 88.06812228 -47.77557919 88.06812228 -0.00007248 178.12672869
2714580000 -0.00007275 178.00584811 -47.75960334 88.06456274 -47.75960334 88.06456274 -0.00007275 178.12327737
2719570000 -0.00007302 178.00218033 -47.74365685 88.06100319 -47.74365685 88.06100319 -0.00007302 178.11982604
2724560000 -0.00007328 177.99851255 -47.72773962 88.05744363 -47.72773962 88.05744363 -0.00007328 178.11637471
2729550000 -0.00007355 177.99484475 -47.71185153 88.05388406 -47.71185153 88.05388406 -0.00007355 178.11292337
2734540000 -0.00007382 177.99117694 -47.69599248 88.05032448 -47.69599248 88.05032448 -0.00007382 178.10947202
2739530000 -0.00007409 177.98750912 -47.68016236 88.04676489 -47.68016236 88.04676489 -0.00007409 178.10602066
2744520000 -0.00007436 177.98384129 -47.66436107 88.04320529 -47.66436107 88.04320529 -0.00007436 178.10256929
2749510000 -0.00007463 177.98017345 -47.64858851 88.03964568 -47.64858851 88.03964568 -0.00007463 178.09911792
2754500000 -0.00007490 177.97650559 -47.63284456 88.03608606 -47.63284456 88.03608606 -0.00007490 178.09566654
2759490000 -0.00007518 177.97283772 -47.61712913 88.03252643 -47.61712913 88.03252643 -0.00007518 178.09221514
2764480000 -0.00007545 177.96916985 -47.60144212 88.02896680 -47.60144212 88.02896680 -0.00007545 178.08876374
2769470000 -0.00007572 177.96550196 -47.58578341 88.02540715 -47.58578341 88.02540715 -0.00007572 178.08531234
2774460000 -0.00007599 177.96183405 -47.57015291 88.02184749 -47.57015291 88.02184749 -0.00007599 178.08186092
2779450000 -0.00007627 177.95816614 -47.55455052 88.01828782 -47.55455052 88.01828782 -0.00007627 178.07840949
2784440000 -0.00007654 177.95449822 -47.53897613 88.01472814 -47.53897613 88.01472814 -0.00007654 178.07495806
2789430000 -0.00007681 177.95083028 -47.52342965 88.01116845 -47.52342965 88.01116845 -0.00007681 178.07150662
2794420000 -0.00007709 177.94716233 -47.50791098 88.00760875 -47.50791098 88.00760875 -0.00007709 178.06805517
2799410000 -0.00007737 177.94349437 -47.49242001 88.00404904 -47.49242001 88.00404904 -0.00007737 178.06460371
2804400000 -0.00007764 177.93982640 -47.47695665 88.00048932 -47.47695665 88.00048932 -0.00007764 178.06115224
2809390000 -0.00007792 177.93615842 -47.46152081 87.99692959 -47.46152081 87.99692959 -0.00007792 178.05770077
2814380000 -0.00007819 177.93249042 -47.44611237 87.99336985 -47.44611237 87.99336985 -0.00007819 178.05424928
2819370000 -0.00007847 177.92882241 -47.43073125 87.98981010 -47.43073125 87.98981010 -0.00007847 178.05079779
2824360000 -0.00007875 177.92515439 -47.41537735 87.98625034 -47.41537735 87.98625034 -0.00007875 178.04734629
2829350000 -0.00007903 177.92148636 -47.40005057 87.98269057 -47.40005057 87.98269057 -0.00007903 178.04389478
2834340000 -0.00007931 177.91781832 -47.38475082 87.97913079 -47.38475082 87.97913079 -0.00007931 178.04044326
2839330000 -0.00007959 177.91415026 -47.36947801 87.97557100 -47.36947801 87.97557100 -0.00007959 178.03699173
2844320000 -0.00007987 177.91048219 -47.35423203 87.97201120 -47.35423203 87.97201120 -0.00007987 178.03354020
2849310000 -0.00008015 177.90681412 -47.33901279 87.96845138 -47.33901279 87.96845138 -0.00008015 178.03008865
2854300000 -0.00008043 177.90314602 -47.32382020 87.96489156 -47.32382020 87.96489156 -0.00008043 178.02663710
2859290000 -0.00008071 177.89947792 -47.30865417 87.96133173 -47.30865417 87.96133173 -0.00008071 178.02318554
2864280000 -0.00008099 177.89580981 -47.29351461 87.95777189 -47.29351461 87.95777189 -0.00008099 178.01973397
2869270000 -0.00008127 177.89214168 -47.27840142 87.95421203 -47.27840142 87.95421203 -0.00008127 178.01628239
2874260000 -0.00008156 177.88847354 -47.26331451 87.95065217 -47.26331451 87.95065217 -0.00008156 178.01283080
2879250000 -0.00008184 177.88480539 -47.24825379 87.94709230 -47.24825379 87.94709230 -0.00008184 178.00937921
2884240000 -0.00008212 177.88113722 -47.23321916 87.94353241 -47.23321916 87.94353241 -0.00008212 178.00592760
2889230000 -0.00008241 177.87746905 -47.21821055 87.93997252 -47.21821055 87.93997252 -0.00008241 178.00247599
2894220000 -0.00008269 177.87380086 -47.20322786 87.93641261 -47.20322786 87.93641261 -0.00008269 177.99902437
2899210000 -0.00008298 177.87013266 -47.18827099 87.93285270 -47.18827099 87.93285270 -0.00008298 177.99557273
2904200000 -0.00008326 177.86646445 -47.17333987 87.92929277 -47.17333987 87.92929277 -0.00008326 177.99212109
2909190000 -0.00008355 177.86279622 -47.15843440 87.92573283 -47.15843440 87.92573283 -0.00008355 177.98866945
2914180000 -0.00008384 177.85912798 -47.14355449 87.92217289 -47.14355449 87.92217289 -0.00008384 177.98521779
2919170000 -0.00008412 177.85545973 -47.12870006 87.91861293 -47.12870006 87.91861293 -0.00008412 177.98176612
2924160000 -0.00008441 177.85179147 -47.11387103 87.91505296 -47.11387103 87.91505296 -0.00008441 177.97831445
2929150000 -0.00008470 177.84812320 -47.09906729 87.91149298 -47.09906729 87.91149298 -0.00008470 177.97486276
2934140000 -0.00008499 177.84445491 -47.08428877 87.90793299 -47.08428877 87.90793299 -0.00008499 177.97141107
2939130000 -0.00008528 177.84078661 -47.06953539 87.90437299 -47.06953539 87.90437299 -0.00008528 177.96795937
2944120000 -0.00008557 177.83711830 -47.05480705 87.90081298 -47.05480705 87.90081298 -0.00008557 177.96450766
2949110000 -0.00008586 177.83344998 -47.04010368 87.89725296 -47.04010368 87.89725296 -0.00008586 177.96105594
2954100000 -0.00008615 177.82978164 -47.02542518 87.89369293 -47.02542518 87.89369293 -0.00008615 177.95760421
2959090000 -0.00008644 177.82611329 -47.01077148 87.89013288 -47.01077148 87.89013288 -0.00008644 177.95415247
2964080000 -0.00008673 177.82244493 -46.99614248 87.88657283 -46.99614248 87.88657283 -0.00008673 177.95070073
2969070000 -0.00008702 177.81877656 -46.98153812 87.88301277 -46.98153812 87.88301277 -0.00008702 177.94724897
2974060000 -0.00008732 177.81510817 -46.96695829 87.87945269 -46.96695829 87.87945269 -0.00008732 177.94379721
2979050000 -0.00008761 177.81143978 -46.95240293 87.87589260 -46.95240293 87.87589260 -0.00008761 177.94034543
2984040000 -0.00008790 177.80777136 -46.93787195 87.87233251 -46.93787195 87.87233251 -0.00008790 177.93689365
2989030000 -0.00008820 177.80410294 -46.92336527 87.86877240 -46.92336527 87.86877240 -0.00008820 177.93344186
2994020000 -0.00008849 177.80043450 -46.90888281 87.86521228 -46.90888281 87.86521228 -0.00008849 177.92999006
2999010000 -0.00008879 177.79676606 -46.89442448 87.86165215 -46.89442448 87.86165215 -0.00008879 177.92653825
3004000000 -0.00008908 177.79309759 -46.87999022 87.85809201 -46.87999022 87.85809201 -0.00008908 177.92308643
3008990000 -0.00008938 177.78942912 -46.86557992 87.85453186 -46.86557992 87.85453186 -0.00008938 177.91963460
3013980000 -0.00008967 177.78576063 -46.85119353 87.85097170 -46.85119353 87.85097170 -0.00008967 177.91618277
3018970000 -0.00008997 177.78209213 -46.83683096 87.84741153 -46.83683096 87.84741153 -0.00008997 177.91273092
3023960000 -0.00009027 177.77842362 -46.82249212 87.84385134 -46.82249212 87.84385134 -0.00009027 177.90927907
3028950000 -0.00009057 177.77475510 -46.80817695 87.84029115 -46.80817695 87.84029115 -0.00009057 177.90582720
3033940000 -0.00009087 177.77108656 -46.79388536 87.83673094 -46.79388536 87.83673094 -0.00009087 177.90237533
3038930000 -0.00009116 177.76741801 -46.77961728 87.83317073 -46.77961728 87.83317073 -0.00009116 177.89892345
3043920000 -0.00009146 177.76374944 -46.76537262 87.82961050 -46.76537262 87.82961050 -0.00009146 177.89547156
3048910000 -0.00009176 177.76008087 -46.75115132 87.82605026 -46.75115132 87.82605026 -0.00009176 177.89201966
3053900000 -0.00009206 177.75641228 -46.73695330 87.82249001 -46.73695330 87.82249001 -0.00009206 177.88856775
3058890000 -0.00009237 177.75274368 -46.72277847 87.81892975 -46.72277847 87.81892975 -0.00009237 177.88511583
3063880000 -0.00009267 177.74907506 -46.70862678 87.81536948 -46.70862678 87.81536948 -0.00009267 177.88166390
3068870000 -0.00009297 177.74540643 -46.69449813 87.81180920 -46.69449813 87.81180920 -0.00009297 177.87821196
3073860000 -0.00009327 177.74173779 -46.68039245 87.80824890 -46.68039245 87.80824890 -0.00009327 177.87476001
3078850000 -0.00009357 177.73806914 -46.66630968 87.80468860 -46.66630968 87.80468860 -0.00009357 177.87130806
3083840000 -0.00009388 177.73440047 -46.65224973 87.80112828 -46.65224973 87.80112828 -0.00009388 177.86785609
3088830000 -0.00009418 177.73073179 -46.63821253 87.79756795 -46.63821253 87.79756795 -0.00009418 177.86440412
3093820000 -0.00009449 177.72706310 -46.62419801 87.79400762 -46.62419801 87.79400762 -0.00009449 177.86095213
3098810000 -0.00009479 177.72339439 -46.61020610 87.79044727 -46.61020610 87.79044727 -0.00009479 177.85750014
3103800000 -0.00009510 177.71972567 -46.59623672 87.78688690 -46.59623672 87.78688690 -0.00009510 177.85404813
3108790000 -0.00009540 177.71605694 -46.58228981 87.78332653 -46.58228981 87.78332653 -0.00009540 177.85059612
3113780000 -0.00009571 177.71238820 -46.56836528 87.77976615 -46.56836528 87.77976615 -0.00009571 177.84714410
3118770000 -0.00009602 177.70871944 -46.55446307 87.77620575 -46.55446307 87.77620575 -0.00009602 177.84369207
3123760000 -0.00009632 177.70505067 -46.54058310 87.77264535 -46.54058310 87.77264535 -0.00009632 177.84024003
3128750000 -0.00009663 177.70138188 -46.52672531 87.76908493 -46.52672531 87.76908493 -0.00009663 177.83678798
3133740000 -0.00009694 177.69771309 -46.51288962 87.76552450 -46.51288962 87.76552450 -0.00009694 177.83333592
3138730000 -0.00009725 177.69404427 -46.49907597 87.76196406 -46.49907597 87.76196406 -0.00009725 177.82988385
3143720000 -0.00009756 177.69037545 -46.48528428 87.75840361 -46.48528428 87.75840361 -0.00009756 177.82643177
3148710000 -0.00009787 177.68670661 -46.47151448 87.75484315 -46.47151448 87.75484315 -0.00009787 177.82297968
3153700000 -0.00009818 177.68303776 -46.45776651 87.75128267 -46.45776651 87.75128267 -0.00009818 177.81952758
3158690000 -0.00009849 177.67936890 -46.44404029 87.74772219 -46.44404029 87.74772219 -0.00009849 177.81607548
3163680000 -0.00009880 177.67570002 -46.43033577 87.74416169 -46.43033577 87.74416169 -0.00009880 177.81262336
3168670000 -0.00009911 177.67203113 -46.41665286 87.74060118 -46.41665286 87.74060118 -0.00009911 177.80917123
3173660000 -0.00009942 177.66836223 -46.40299150 87.73704066 -46.40299150 87.73704066 -0.00009942 177.80571910
3178650000 -0.00009974 177.66469331 -46.38935162 87.73348013 -46.38935162 87.73348013 -0.00009974 177.80226695
3183640000 -0.00010005 177.66102438 -46.37573316 87.72991959 -46.37573316 87.72991959 -0.00010005 177.79881480
3188630000 -0.00010036 177.65735543 -46.36213605 87.72635903 -46.36213605 87.72635903 -0.00010036 177.79536263
3193620000 -0.00010068 177.65368648 -46.34856022 87.72279847 -46.34856022 87.72279847 -0.00010068 177.79191046
3198610000 -0.00010099 177.65001750 -46.33500561 87.71923789 -46.33500561 87.71923789 -0.00010099 177.78845827
3203600000 -0.00010131 177.64634852 -46.32147215 87.71567730 -46.32147215 87.71567730 -0.00010131 177.78500608
3208590000 -0.00010162 177.64267952 -46.30795977 87.71211670 -46.30795977 87.71211670 -0.00010162 177.78155388
3213580000 -0.00010194 177.63901051 -46.29446841 87.70855609 -46.29446841 87.70855609 -0.00010194 177.77810166
3218570000 -0.00010226 177.63534148 -46.28099800 87.70499546 -46.28099800 87.70499546 -0.00010226 177.77464944
3223560000 -0.00010257 177.63167244 -46.26754848 87.70143483 -46.26754848 87.70143483 -0.00010257 177.77119721
3228550000 -0.00010289 177.62800339 -46.25411978 87.69787418 -46.25411978 87.69787418 -0.00010289 177.76774497
3233540000 -0.00010321 177.62433433 -46.24071184 87.69431352 -46.24071184 87.69431352 -0.00010321 177.76429271
3238530000 -0.00010353 177.62066525 -46.22732460 87.69075285 -46.22732460 87.69075285 -0.00010353 177.76084045
3243520000 -0.00010385 177.61699615 -46.21395799 87.68719217 -46.21395799 87.68719217 -0.00010385 177.75738818
3248510000 -0.00010417 177.61332705 -46.20061195 87.68363147 -46.20061195 87.68363147 -0.00010417 177.75393590
3253500000 -0.00010449 177.60965793 -46.18728641 87.68007077 -46.18728641 87.68007077 -0.00010449 177.75048361
3258490000 -0.00010481 177.60598879 -46.17398132 87.67651005 -46.17398132 87.67651005 -0.00010481 177.74703131
3263480000 -0.00010513 177.60231964 -46.16069660 87.67294932 -46.16069660 87.67294932 -0.00010513 177.74357899
3268470000 -0.00010545 177.59865048 -46.14743220 87.66938858 -46.14743220 87.66938858 -0.00010545 177.74012667
3273460000 -0.00010577 177.59498130 -46.13418806 87.66582782 -46.13418806 87.66582782 -0.00010577 177.73667434
3278450000 -0.00010609 177.59131211 -46.12096411 87.66226706 -46.12096411 87.66226706 -0.00010609 177.73322200
3283440000 -0.00010642 177.58764291 -46.10776030 87.65870628 -46.10776030 87.65870628 -0.00010642 177.72976965
3288430000 -0.00010674 177.58397369 -46.09457655 87.65514549 -46.09457655 87.65514549 -0.00010674 177.72631729
3293420000 -0.00010707 177.58030446 -46.08141282 87.65158469 -46.08141282 87.65158469 -0.00010707 177.72286492
3298410000 -0.00010739 177.57663522 -46.06826903 87.64802388 -46.06826903 87.64802388 -0.00010739 177.71941254
3303400000 -0.00010771 177.57296596 -46.05514514 87.64446305 -46.05514514 87.64446305 -0.00010771 177.71596015
3308390000 -0.00010804 177.56929669 -46.04204107 87.64090222 -46.04204107 87.64090222 -0.00010804 177.71250775
3313380000 -0.00010837 177.56562740 -46.02895678 87.63734137 -46.02895678 87.63734137 -0.00010837 177.70905534
3318370000 -0.00010869 177.56195810 -46.01589219 87.63378051 -46.01589219 87.63378051 -0.00010869 177.70560292
3323360000 -0.00010902 177.55828878 -46.00284726 87.63021964 -46.00284726 87.63021964 -0.00010902 177.70215049
3328350000 -0.00010935 177.55461945 -45.98982192 87.62665875 -45.98982192 87.62665875 -0.00010935 177.69869805
3333340000 -0.00010968 177.55095011 -45.97681611 87.62309785 -45.97681611 87.62309785 -0.00010968 177.69524560
3338330000 -0.00011000 177.54728075 -45.96382978 87.61953694 -45.96382978 87.61953694 -0.00011000 177.69179313
3343320000 -0.00011033 177.54361138 -45.95086286 87.61597602 -45.95086286 87.61597602 -0.00011033 177.68834066
3348310000 -0.00011066 177.53994200 -45.93791531 87.61241509 -45.93791531 87.61241509 -0.00011066 177.68488818
3353300000 -0.00011099 177.53627260 -45.92498705 87.60885415 -45.92498705 87.60885415 -0.00011099 177.68143569
3358290000 -0.00011132 177.53260319 -45.91207804 87.60529319 -45.91207804 87.60529319 -0.00011132 177.67798319
3363280000 -0.00011165 177.52893376 -45.89918822 87.60173222 -45.89918822 87.60173222 -0.00011165 177.67453068
3368270000 -0.00011198 177.52526432 -45.88631752 87.59817124 -45.88631752 87.59817124 -0.00011198 177.67107816
3373260000 -0.00011232 177.52159486 -45.87346590 87.59461024 -45.87346590 87.59461024 -0.00011232 177.66762563
3378250000 -0.00011265 177.51792539 -45.86063330 87.59104924 -45.86063330 87.59104924 -0.00011265 177.66417308
3383240000 -0.00011298 177.51425591 -45.84781966 87.58748822 -45.84781966 87.58748822 -0.00011298 177.66072053
3388230000 -0.00011332 177.51058641 -45.83502492 87.58392719 -45.83502492 87.58392719 -0.00011332 177.65726797
3393220000 -0.00011365 177.50691689 -45.82224904 87.58036614 -45.82224904 87.58036614 -0.00011365 177.65381540
3398210000 -0.00011398 177.50324737 -45.80949194 87.57680509 -45.80949194 87.57680509 -0.00011398 177.65036281
3403200000 -0.00011432 177.49957783 -45.79675359 87.57324402 -45.79675359 87.57324402 -0.00011432 177.64691022
3408190000 -0.00011465 177.49590827 -45.78403392 87.56968294 -45.78403392 87.56968294 -0.00011465 177.64345762
3413180000 -0.00011499 177.49223870 -45.77133288 87.56612185 -45.77133288 87.56612185 -0.00011499 177.64000500
3418170000 -0.00011533 177.48856911 -45.75865042 87.56256075 -45.75865042 87.56256075 -0.00011533 177.63655238
3423160000 -0.00011566 177.48489951 -45.74598647 87.55899963 -45.74598647 87.55899963 -0.00011566 177.63309974
3428150000 -0.00011600 177.48122990 -45.73334100 87.55543850 -45.73334100 87.55543850 -0.00011600 177.62964710
3433140000 -0.00011634 177.47756027 -45.72071393 87.55187736 -45.72071393 87.55187736 -0.00011634 177.62619444
3438130000 -0.00011668 177.47389063 -45.70810523 87.54831620 -45.70810523 87.54831620 -0.00011668 177.62274178
3443120000 -0.00011701 177.47022097 -45.69551484 87.54475504 -45.69551484 87.54475504 -0.00011701 177.61928910
3448110000 -0.00011735 177.46655130 -45.68294269 87.54119386 -45.68294269 87.54119386 -0.00011735 177.61583641
3453100000 -0.00011769 177.46288162 -45.67038875 87.53763267 -45.67038875 87.53763267 -0.00011769 177.61238372
3458090000 -0.00011803 177.45921191 -45.65785296 87.53407146 -45.65785296 87.53407146 -0.00011803 177.60893101
3463080000 -0.00011837 177.45554220 -45.64533526 87.53051025 -45.64533526 87.53051025 -0.00011837 177.60547829
3468070000 -0.00011872 177.45187247 -45.63283561 87.52694902 -45.63283561 87.52694902 -0.00011872 177.60202556
3473060000 -0.00011906 177.44820272 -45.62035395 87.52338777 -45.62035395 87.52338777 -0.00011906 177.59857283
3478050000 -0.00011940 177.44453297 -45.60789023 87.51982652 -45.60789023 87.51982652 -0.00011940 177.59512008
3483040000 -0.00011974 177.44086319 -45.59544440 87.51626525 -45.59544440 87.51626525 -0.00011974 177.59166732
3488030000 -0.00012008 177.43719340 -45.58301640 87.51270397 -45.58301640 87.51270397 -0.00012008 177.58821455
3493020000 -0.00012043 177.43352360 -45.57060620 87.50914268 -45.57060620 87.50914268 -0.00012043 177.58476176
3498010000 -0.00012077 177.42985378 -45.55821373 87.50558138 -45.55821373 87.50558138 -0.00012077 177.58130897
3503000000 -0.00012112 177.42618395 -45.54583894 87.50202006 -45.54583894 87.50202006 -0.00012112 177.57785617
3507990000 -0.00012146 177.42251410 -45.53348180 87.49845873 -45.53348180 87.49845873 -0.00012146 177.57440336
3512980000 -0.00012181 177.41884424 -45.52114223 87.49489739 -45.52114223 87.49489739 -0.00012181 177.57095053
3517970000 -0.00012215 177.41517436 -45.50882020 87.49133603 -45.50882020 87.49133603 -0.00012215 177.56749770
3522960000 -0.00012250 177.41150447 -45.49651566 87.48777466 -45.49651566 87.48777466 -0.00012250 177.56404486
3527950000 -0.00012285 177.40783456 -45.48422855 87.48421328 -45.48422855 87.48421328 -0.00012285 177.56059200
3532940000 -0.00012320 177.40416464 -45.47195884 87.48065189 -45.47195884 87.48065189 -0.00012320 177.55713913
3537930000 -0.00012354 177.40049470 -45.45970645 87.47709048 -45.45970645 87.47709048 -0.00012354 177.55368626
3542920000 -0.00012389 177.39682475 -45.44747136 87.47352906 -45.44747136 87.47352906 -0.00012389 177.55023337
3547910000 -0.00012424 177.39315479 -45.43525351 87.46996763 -45.43525351 87.46996763 -0.00012424 177.54678047
3552900000 -0.00012459 177.38948481 -45.42305285 87.46640618 -45.42305285 87.46640618 -0.00012459 177.54332756
3557890000 -0.00012494 177.38581481 -45.41086933 87.46284473 -45.41086933 87.46284473 -0.00012494 177.53987464
3562880000 -0.00012529 177.38214480 -45.39870291 87.45928326 -45.39870291 87.45928326 -0.00012529 177.53642171
3567870000 -0.00012564 177.37847477 -45.38655354 87.45572177 -45.38655354 87.45572177 -0.00012564 177.53296877
3572860000 -0.00012599 177.37480473 -45.37442117 87.45216028 -45.37442117 87.45216028 -0.00012599 177.52951582
3577850000 -0.00012635 177.37113467 -45.36230575 87.44859877 -45.36230575 87.44859877 -0.00012635 177.52606286
3582840000 -0.00012670 177.36746460 -45.35020723 87.44503724 -45.35020723 87.44503724 -0.00012670 177.52260988
3587830000 -0.00012705 177.36379451 -45.33812558 87.44147571 -45.33812558 87.44147571 -0.00012705 177.51915690
3592820000 -0.00012740 177.36012441 -45.32606074 87.43791416 -45.32606074 87.43791416 -0.00012740 177.51570390
3597810000 -0.00012776 177.35645429 -45.31401266 87.43435260 -45.31401266 87.43435260 -0.00012776 177.51225090
3602800000 -0.00012811 177.35278416 -45.30198130 87.43079102 -45.30198130 87.43079102 -0.00012811 177.50879788
3607790000 -0.00012847 177.34911401 -45.28996661 87.42722943 -45.28996661 87.42722943 -0.00012847 177.50534485
3612780000 -0.00012882 177.34544385 -45.27796855 87.42366783 -45.27796855 87.42366783 -0.00012882 177.50189182
3617770000 -0.00012918 177.34177367 -45.26598707 87.42010622 -45.26598707 87.42010622 -0.00012918 177.49843877
3622760000 -0.00012954 177.33810348 -45.25402212 87.41654459 -45.25402212 87.41654459 -0.00012954 177.49498570
3627750000 -0.00012989 177.33443327 -45.24207367 87.41298295 -45.24207367 87.41298295 -0.00012989 177.49153263
3632740000 -0.00013025 177.33076305 -45.23014166 87.40942130 -45.23014166 87.40942130 -0.00013025 177.48807955
3637730000 -0.00013061 177.32709281 -45.21822604 87.40585963 -45.21822604 87.40585963 -0.00013061 177.48462646
3642720000 -0.00013097 177.32342255 -45.20632678 87.40229795 -45.20632678 87.40229795 -0.00013097 177.48117335
3647710000 -0.00013132 177.31975228 -45.19444383 87.39873626 -45.19444383 87.39873626 -0.00013132 177.47772024
3652700000 -0.00013168 177.31608200 -45.18257715 87.39517455 -45.18257715 87.39517455 -0.00013168 177.47426711
3657690000 -0.00013204 177.31241170 -45.17072668 87.39161284 -45.17072668 87.39161284 -0.00013204 177.47081397
3662680000 -0.00013240 177.30874138 -45.15889239 87.38805110 -45.15889239 87.38805110 -0.00013240 177.46736082
3667670000 -0.00013276 177.30507105 -45.14707424 87.38448936 -45.14707424 87.38448936 -0.00013276 177.46390766
3672660000 -0.00013313 177.30140070 -45.13527217 87.38092760 -45.13527217 87.38092760 -0.00013313 177.46045449
3677650000 -0.00013349 177.29773034 -45.12348614 87.37736583 -45.12348614 87.37736583 -0.00013349 177.45700131
3682640000 -0.00013385 177.29405996 -45.11171612 87.37380404 -45.11171612 87.37380404 -0.00013385 177.45354812
3687630000 -0.00013421 177.29038957 -45.09996205 87.37024224 -45.09996205 87.37024224 -0.00013421 177.45009491
3692620000 -0.00013458 177.28671916 -45.08822390 87.36668043 -45.08822390 87.36668043 -0.00013458 177.44664170
3697610000 -0.00013494 177.28304874 -45.07650162 87.36311860 -45.07650162 87.36311860 -0.00013494 177.44318847
3702600000 -0.00013530 177.27937830 -45.06479517 87.35955676 -45.06479517 87.35955676 -0.00013530 177.43973523
3707590000 -0.00013567 177.27570784 -45.05310451 87.35599491 -45.05310451 87.35599491 -0.00013567 177.43628198
3712580000 -0.00013603 177.27203737 -45.04142959 87.35243305 -45.04142959 87.35243305 -0.00013603 177.43282872
3717570000 -0.00013640 177.26836688 -45.02977037 87.34887117 -45.02977037 87.34887117 -0.00013640 177.42937545
3722560000 -0.00013677 177.26469638 -45.01812681 87.34530927 -45.01812681 87.34530927 -0.00013677 177.42592217
3727550000 -0.00013713 177.26102586 -45.00649887 87.34174737 -45.00649887 87.34174737 -0.00013713 177.42246887
3732540000 -0.00013750 177.25735533 -44.99488651 87.33818545 -44.99488651 87.33818545 -0.00013750 177.41901557
3737530000 -0.00013787 177.25368478 -44.98328968 87.33462351 -44.98328968 87.33462351 -0.00013787 177.41556225
3742520000 -0.00013824 177.25001421 -44.97170834 87.33106157 -44.97170834 87.33106157 -0.00013824 177.41210892
3747510000 -0.00013860 177.24634363 -44.96014245 87.32749961 -44.96014245 87.32749961 -0.00013860 177.40865558
3752500000 -0.00013897 177.24267303 -44.94859197 87.32393763 -44.94859197 87.32393763 -0.00013897 177.40520223
3757490000 -0.00013934 177.23900242 -44.93705687 87.32037564 -44.93705687 87.32037564 -0.00013934 177.40174887
3762480000 -0.00013971 177.23533179 -44.92553709 87.31681364 -44.92553709 87.31681364 -0.00013971 177.39829550
3767470000 -0.00014008 177.23166114 -44.91403260 87.31325163 -44.91403260 87.31325163 -0.00014008 177.39484211
3772460000 -0.00014045 177.22799048 -44.90254336 87.30968960 -44.90254336 87.30968960 -0.00014045 177.39138872
3777450000 -0.00014083 177.22431980 -44.89106932 87.30612756 -44.89106932 87.30612756 -0.00014083 177.38793531
3782440000 -0.00014120 177.22064911 -44.87961045 87.30256550 -44.87961045 87.30256550 -0.00014120 177.38448189
3787430000 -0.00014157 177.21697840 -44.86816671 87.29900343 -44.86816671 87.29900343 -0.00014157 177.38102846
3792420000 -0.00014194 177.21330768 -44.85673806 87.29544135 -44.85673806 87.29544135 -0.00014194 177.37757502
3797410000 -0.00014232 177.20963694 -44.84532446 87.29187925 -44.84532446 87.29187925 -0.00014232 177.37412156
3802400000 -0.00014269 177.20596618 -44.83392586 87.28831714 -44.83392586 87.28831714 -0.00014269 177.37066810
3807390000 -0.00014307 177.20229541 -44.82254223 87.28475502 -44.82254223 87.28475502 -0.00014307 177.36721462
3812380000 -0.00014344 177.19862462 -44.81117354 87.28119288 -44.81117354 87.28119288 -0.00014344 177.36376114
3817370000 -0.00014382 177.19495381 -44.79981973 87.27763073 -44.79981973 87.27763073 -0.00014382 177.36030764
3822360000 -0.00014419 177.19128299 -44.78848077 87.27406856 -44.78848077 87.27406856 -0.00014419 177.35685412
3827350000 -0.00014457 177.18761216 -44.77715663 87.27050638 -44.77715663 87.27050638 -0.00014457 177.35340060
3832340000 -0.00014495 177.18394130 -44.76584727 87.26694419 -44.76584727 87.26694419 -0.00014495 177.34994707
3837330000 -0.00014532 177.18027043 -44.75455263 87.26338198 -44.75455263 87.26338198 -0.00014532 177.34649352
3842320000 -0.00014570 177.17659955 -44.74327270 87.25981976 -44.74327270 87.25981976 -0.00014570 177.34303996
3847310000 -0.00014608 177.17292865 -44.73200743 87.25625752 -44.73200743 87.25625752 -0.00014608 177.33958640
3852300000 -0.00014646 177.16925773 -44.72075678 87.25269527 -44.72075678 87.25269527 -0.00014646 177.33613281
3857290000 -0.00014684 177.16558679 -44.70952071 87.24913301 -44.70952071 87.24913301 -0.00014684 177.33267922
3862280000 -0.00014722 177.16191584 -44.69829919 87.24557073 -44.69829919 87.24557073 -0.00014722 177.32922562
3867270000 -0.00014760 177.15824488 -44.68709218 87.24200844 -44.68709218 87.24200844 -0.00014760 177.32577200
3872260000 -0.00014798 177.15457389 -44.67589964 87.23844613 -44.67589964 87.23844613 -0.00014798 177.32231838
3877250000 -0.00014836 177.15090289 -44.66472153 87.23488381 -44.66472153 87.23488381 -0.00014836 177.31886474
3882240000 -0.00014874 177.14723188 -44.65355782 87.23132148 -44.65355782 87.23132148 -0.00014874 177.31541109
3887230000 -0.00014913 177.14356084 -44.64240847 87.22775913 -44.64240847 87.22775913 -0.00014913 177.31195742
3892220000 -0.00014951 177.13988980 -44.63127345 87.22419677 -44.63127345 87.22419677 -0.00014951 177.30850375
3897210000 -0.00014989 177.13621873 -44.62015271 87.22063440 -44.62015271 87.22063440 -0.00014989 177.30505006
3902200000 -0.00015028 177.13254765 -44.60904622 87.21707201 -44.60904622 87.21707201 -0.00015028 177.30159636
3907190000 -0.00015066 177.12887655 -44.59795394 87.21350960 -44.59795394 87.21350960 -0.00015066 177.29814265
3912180000 -0.00015104 177.12520544 -44.58687584 87.20994718 -44.58687584 87.20994718 -0.00015104 177.29468893
3917170000 -0.00015143 177.12153431 -44.57581189 87.20638475 -44.57581189 87.20638475 -0.00015143 177.29123520
3922160000 -0.00015182 177.11786316 -44.56476204 87.20282231 -44.56476204 87.20282231 -0.00015182 177.28778145
3927150000 -0.00015220 177.11419199 -44.55372625 87.19925985 -44.55372625 87.19925985 -0.00015220 177.28432770
3932140000 -0.00015259 177.11052081 -44.54270450 87.19569737 -44.54270450 87.19569737 -0.00015259 177.28087393
3937130000 -0.00015298 177.10684962 -44.53169675 87.19213488 -44.53169675 87.19213488 -0.00015298 177.27742015
3942120000 -0.00015336 177.10317840 -44.52070297 87.18857238 -44.52070297 87.18857238 -0.00015336 177.27396635
3947110000 -0.00015375 177.09950717 -44.50972311 87.18500986 -44.50972311 87.18500986 -0.00015375 177.27051255
3952100000 -0.00015414 177.09583592 -44.49875714 87.18144733 -44.49875714 87.18144733 -0.00015414 177.26705873
3957090000 -0.00015453 177.09216466 -44.48780503 87.17788478 -44.48780503 87.17788478 -0.00015453 177.26360490
3962080000 -0.00015492 177.08849338 -44.47686674 87.17432222 -44.47686674 87.17432222 -0.00015492 177.26015106
3967070000 -0.00015531 177.08482208 -44.46594224 87.17075965 -44.46594224 87.17075965 -0.00015531 177.25669721
3972060000 -0.00015570 177.08115077 -44.45503149 87.16719706 -44.45503149 87.16719706 -0.00015570 177.25324335
3977050000 -0.00015609 177.07747944 -44.44413446 87.16363445 -44.44413446 87.16363445 -0.00015609 177.24978947
3982040000 -0.00015648 177.07380809 -44.43325112 87.16007183 -44.43325112 87.16007183 -0.00015648 177.24633558
3987030000 -0.00015688 177.07013672 -44.42238142 87.15650920 -44.42238142 87.15650920 -0.00015688 177.24288168
3992020000 -0.00015727 177.06646534 -44.41152535 87.15294656 -44.41152535 87.15294656 -0.00015727 177.23942777
3997010000 -0.00015766 177.06279395 -44.40068285 87.14938389 -44.40068285 87.14938389 -0.00015766 177.23597384
4002000000 -0.00015805 177.05912253 -44.38985390 87.14582122 -44.38985390 87.14582122 -0.00015805 177.23251990
4006990000 -0.00015845 177.05545110 -44.37903846 87.14225853 -44.37903846 87.14225853 -0.00015845 177.22906596
4011980000 -0.00015884 177.05177965 -44.36823651 87.13869582 -44.36823651 87.13869582 -0.00015884 177.22561199
4016970000 -0.00015924 177.04810818 -44.35744800 87.13513310 -44.35744800 87.13513310 -0.00015924 177.22215802
4021960000 -0.00015963 177.04443670 -44.34667290 87.13157037 -44.34667290 87.13157037 -0.00015963 177.21870404
4026950000 -0.00016003 177.04076520 -44.33591119 87.12800762 -44.33591119 87.12800762 -0.00016003 177.21525004
4031940000 -0.00016043 177.03709369 -44.32516282 87.12444486 -44.32516282 87.12444486 -0.00016043 177.21179603
4036930000 -0.00016082 177.03342215 -44.31442777 87.12088208 -44.31442777 87.12088208 -0.00016082 177.20834201
4041920000 -0.00016122 177.02975060 -44.30370600 87.11731929 -44.30370600 87.11731929 -0.00016122 177.20488797
4046910000 -0.00016162 177.02607903 -44.29299748 87.11375648 -44.29299748 87.11375648 -0.00016162 177.20143392
4051900000 -0.00016202 177.02240745 -44.28230217 87.11019366 -44.28230217 87.11019366 -0.00016202 177.19797987
4056890000 -0.00016242 177.01873585 -44.27162005 87.10663082 -44.27162005 87.10663082 -0.00016242 177.19452579
4061880000 -0.00016282 177.01506423 -44.26095108 87.10306797 -44.26095108 87.10306797 -0.00016282 177.19107171
4066870000 -0.00016322 177.01139259 -44.25029522 87.09950510 -44.25029522 87.09950510 -0.00016322 177.18761762
4071860000 -0.00016362 177.00772094 -44.23965246 87.09594222 -44.23965246 87.09594222 -0.00016362 177.18416351
4076850000 -0.00016402 177.00404927 -44.22902275 87.09237933 -44.22902275 87.09237933 -0.00016402 177.18070939
4081840000 -0.00016442 177.00037758 -44.21840606 87.08881642 -44.21840606 87.08881642 -0.00016442 177.17725525
4086830000 -0.00016482 176.99670588 -44.20780236 87.08525349 -44.20780236 87.08525349 -0.00016482 177.17380111
4091820000 -0.00016522 176.99303415 -44.19721162 87.08169055 -44.19721162 87.08169055 -0.00016522 177.17034695
4096810000 -0.00016563 176.98936241 -44.18663381 87.07812760 -44.18663381 87.07812760 -0.00016563 177.16689278
4101800000 -0.00016603 176.98569066 -44.17606890 87.07456463 -44.17606890 87.07456463 -0.00016603 177.16343860
4106790000 -0.00016643 176.98201888 -44.16551685 87.07100164 -44.16551685 87.07100164 -0.00016643 177.15998441
4111780000 -0.00016684 176.97834709 -44.15497763 87.06743865 -44.15497763 87.06743865 -0.00016684 177.15653020
4116770000 -0.00016724 176.97467528 -44.14445122 87.06387563 -44.14445122 87.06387563 -0.00016724 177.15307598
4121760000 -0.00016765 176.97100346 -44.13393758 87.06031260 -44.13393758 87.06031260 -0.00016765 177.14962175
4126750000 -0.00016805 176.96733161 -44.12343668 87.05674956 -44.12343668 87.05674956 -0.00016805 177.14616750
4131740000 -0.00016846 176.96365975 -44.11294849 87.05318650 -44.11294849 87.05318650 -0.00016846 177.14271325
4136730000 -0.00016887 176.95998787 -44.10247298 87.04962343 -44.10247298 87.04962343 -0.00016887 177.13925898
4141720000 -0.00016927 176.95631598 -44.09201011 87.04606034 -44.09201011 87.04606034 -0.00016927 177.13580469
4146710000 -0.00016968 176.95264407 -44.08155987 87.04249723 -44.08155987 87.04249723 -0.00016968 177.13235040
4151700000 -0.00017009 176.94897213 -44.07112222 87.03893411 -44.07112222 87.03893411 -0.00017009 177.12889609
4156690000 -0.00017050 176.94530019 -44.06069712 87.03537098 -44.06069712 87.03537098 -0.00017050 177.12544177
4161680000 -0.00017091 176.94162822 -44.05028455 87.03180783 -44.05028455 87.03180783 -0.00017091 177.12198744
4166670000 -0.00017132 176.93795624 -44.03988448 87.02824467 -44.03988448 87.02824467 -0.00017132 177.11853310
4171660000 -0.00017173 176.93428424 -44.02949687 87.02468149 -44.02949687 87.02468149 -0.00017173 177.11507874
4176650000 -0.00017214 176.93061222 -44.01912170 87.02111829 -44.01912170 87.02111829 -0.00017214 177.11162437
4181640000 -0.00017255 176.92694018 -44.00875895 87.01755508 -44.00875895 87.01755508 -0.00017255 177.10816999
4186630000 -0.00017296 176.92326813 -43.99840857 87.01399186 -43.99840857 87.01399186 -0.00017296 177.10471559
4191620000 -0.00017337 176.91959606 -43.98807054 87.01042862 -43.98807054 87.01042862 -0.00017337 177.10126118
4196610000 -0.00017379 176.91592397 -43.97774483 87.00686536 -43.97774483 87.00686536 -0.00017379 177.09780676
4201600000 -0.00017420 176.91225186 -43.96743141 87.00330209 -43.96743141 87.00330209 -0.00017420 177.09435233
4206590000 -0.00017461 176.90857974 -43.95713025 86.99973881 -43.95713025 86.99973881 -0.00017461 177.09089788
4211580000 -0.00017503 176.90490759 -43.94684133 86.99617551 -43.94684133 86.99617551 -0.00017503 177.08744342
4216570000 -0.00017544 176.90123543 -43.93656460 86.99261219 -43.93656460 86.99261219 -0.00017544 177.08398895
4221560000 -0.00017586 176.89756325 -43.92630006 86.98904886 -43.92630006 86.98904886 -0.00017586 177.08053447
4226550000 -0.00017627 176.89389106 -43.91604766 86.98548552 -43.91604766 86.98548552 -0.00017627 177.07707997
4231540000 -0.00017669 176.89021885 -43.90580737 86.98192215 -43.90580737 86.98192215 -0.00017669 177.07362546
4236530000 -0.00017711 176.88654661 -43.89557918 86.97835878 -43.89557918 86.97835878 -0.00017711 177.07017094
4241520000 -0.00017752 176.88287436 -43.88536304 86.97479538 -43.88536304 86.97479538 -0.00017752 177.06671640
4246510000 -0.00017794 176.87920210 -43.87515894 86.97123198 -43.87515894 86.97123198 -0.00017794 177.06326185
4251500000 -0.00017836 176.87552981 -43.86496684 86.96766855 -43.86496684 86.96766855 -0.00017836 177.05980729
4256490000 -0.00017878 176.87185751 -43.85478672 86.96410511 -43.85478672 86.96410511 -0.00017878 177.05635272
4261480000 -0.00017920 176.86818519 -43.84461854 86.96054166 -43.84461854 86.96054166 -0.00017920 177.05289813
4266470000 -0.00017962 176.86451285 -43.83446229 86.95697819 -43.83446229 86.95697819 -0.00017962 177.04944353
4271460000 -0.00018004 176.86084049 -43.82431793 86.95341471 -43.82431793 86.95341471 -0.00018004 177.04598892
4276450000 -0.00018046 176.85716812 -43.81418543 86.94985121 -43.81418543 86.94985121 -0.00018046 177.04253429
4281440000 -0.00018088 176.85349572 -43.80406476 86.94628769 -43.80406476 86.94628769 -0.00018088 177.03907966
4286430000 -0.00018130 176.84982331 -43.79395591 86.94272416 -43.79395591 86.94272416 -0.00018130 177.03562500
4291420000 -0.00018172 176.84615088 -43.78385884 86.93916061 -43.78385884 86.93916061 -0.00018172 177.03217034
4296410000 -0.00018214 176.84247844 -43.77377352 86.93559705 -43.77377352 86.93559705 -0.00018214 177.02871566
4301400000 -0.00018257 176.83880597 -43.76369993 86.93203347 -43.76369993 86.93203347 -0.00018257 177.02526097
4306390000 -0.00018299 176.83513349 -43.75363803 86.92846988 -43.75363803 86.92846988 -0.00018299 177.02180627
4311380000 -0.00018341 176.83146098 -43.74358781 86.92490627 -43.74358781 86.92490627 -0.00018341 177.01835155
4316370000 -0.00018384 176.82778846 -43.73354924 86.92134264 -43.73354924 86.92134264 -0.00018384 177.01489682
4321360000 -0.00018426 176.82411593 -43.72352228 86.91777900 -43.72352228 86.91777900 -0.00018426 177.01144208
4326350000 -0.00018469 176.82044337 -43.71350692 86.91421535 -43.71350692 86.91421535 -0.00018469 177.00798732
4331340000 -0.00018512 176.81677079 -43.70350312 86.91065167 -43.70350312 86.91065167 -0.00018512 177.00453255
4336330000 -0.00018554 176.81309820 -43.69351086 86.90708799 -43.69351086 86.90708799 -0.00018554 177.00107777
4341320000 -0.00018597 176.80942559 -43.68353012 86.90352428 -43.68353012 86.90352428 -0.00018597 176.99762298
4346310000 -0.00018640 176.80575296 -43.67356085 86.89996056 -43.67356085 86.89996056 -0.00018640 176.99416817
4351300000 -0.00018682 176.80208031 -43.66360305 86.89639683 -43.66360305 86.89639683 -0.00018682 176.99071335
4356290000 -0.00018725 176.79840765 -43.65365668 86.89283308 -43.65365668 86.89283308 -0.00018725 176.98725851
4361280000 -0.00018768 176.79473496 -43.64372172 86.88926931 -43.64372172 86.88926931 -0.00018768 176.98380366
4366270000 -0.00018811 176.79106226 -43.63379814 86.88570553 -43.63379814 86.88570553 -0.00018811 176.98034880
4371260000 -0.00018854 176.78738954 -43.62388591 86.88214173 -43.62388591 86.88214173 -0.00018854 176.97689393
4376250000 -0.00018897 176.78371680 -43.61398502 86.87857792 -43.61398502 86.87857792 -0.00018897 176.97343904
4381240000 -0.00018940 176.78004404 -43.60409542 86.87501409 -43.60409542 86.87501409 -0.00018940 176.96998414
4386230000 -0.00018983 176.77637126 -43.59421710 86.87145024 -43.59421710 86.87145024 -0.00018983 176.96652923
4391220000 -0.00019026 176.77269846 -43.58435004 86.86788638 -43.58435004 86.86788638 -0.00019026 176.96307430
4396210000 -0.00019070 176.76902565 -43.57449420 86.86432250 -43.57449420 86.86432250 -0.00019070 176.95961936
4401200000 -0.00019113 176.76535282 -43.56464956 86.86075861 -43.56464956 86.86075861 -0.00019113 176.95616440
4406190000 -0.00019156 176.76167997 -43.55481610 86.85719470 -43.55481610 86.85719470 -0.00019156 176.95270944
4411180000 -0.00019200 176.75800710 -43.54499379 86.85363078 -43.54499379 86.85363078 -0.00019200 176.94925446
4416170000 -0.00019243 176.75433421 -43.53518260 86.85006684 -43.53518260 86.85006684 -0.00019243 176.94579946
4421160000 -0.00019287 176.75066130 -43.52538252 86.84650288 -43.52538252 86.84650288 -0.00019287 176.94234446
4426150000 -0.00019330 176.74698838 -43.51559350 86.84293891 -43.51559350 86.84293891 -0.00019330 176.93888943
4431140000 -0.00019374 176.74331543 -43.50581554 86.83937492 -43.50581554 86.83937492 -0.00019374 176.93543440
4436130000 -0.00019417 176.73964247 -43.49604861 86.83581091 -43.49604861 86.83581091 -0.00019417 176.93197935
4441120000 -0.00019461 176.73596949 -43.48629267 86.83224689 -43.48629267 86.83224689 -0.00019461 176.92852429
4446110000 -0.00019505 176.73229649 -43.47654771 86.82868285 -43.47654771 86.82868285 -0.00019505 176.92506922
4451100000 -0.00019548 176.72862347 -43.46681370 86.82511880 -43.46681370 86.82511880 -0.00019548 176.92161413
4456090000 -0.00019592 176.72495043 -43.45709062 86.82155473 -43.45709062 86.82155473 -0.00019592 176.91815903
4461080000 -0.00019636 176.72127737 -43.44737844 86.81799064 -43.44737844 86.81799064 -0.00019636 176.91470391
4466070000 -0.00019680 176.71760429 -43.43767713 86.81442654 -43.43767713 86.81442654 -0.00019680 176.91124879
4471060000 -0.00019724 176.71393120 -43.42798668 86.81086242 -43.42798668 86.81086242 -0.00019724 176.90779364
4476050000 -0.00019768 176.71025809 -43.41830706 86.80729829 -43.41830706 86.80729829 -0.00019768 176.90433849
4481040000 -0.00019812 176.70658495 -43.40863825 86.80373414 -43.40863825 86.80373414 -0.00019812 176.90088332
4486030000 -0.00019856 176.70291180 -43.39898022 86.80016997 -43.39898022 86.80016997 -0.00019856 176.89742814
4491020000 -0.00019900 176.69923863 -43.38933294 86.79660579 -43.38933294 86.79660579 -0.00019900 176.89397294
4496010000 -0.00019945 176.69556544 -43.37969640 86.79304159 -43.37969640 86.79304159 -0.00019945 176.89051773
4501000000 -0.00019989 176.69189224 -43.37007057 86.78947737 -43.37007057 86.78947737 -0.00019989 176.88706251
4505990000 -0.00020033 176.68821901 -43.36045542 86.78591314 -43.36045542 86.78591314 -0.00020033 176.88360727
4510980000 -0.00020077 176.68454576 -43.35085093 86.78234889 -43.35085093 86.78234889 -0.00020077 176.88015202
4515970000 -0.00020122 176.68087250 -43.34125709 86.77878463 -43.34125709 86.77878463 -0.00020122 176.87669676
4520960000 -0.00020166 176.67719921 -43.33167386 86.77522035 -43.33167386 86.77522035 -0.00020166 176.87324148
4525950000 -0.00020211 176.67352591 -43.32210122 86.77165605 -43.32210122 86.77165605 -0.00020211 176.86978619
4530940000 -0.00020255 176.66985259 -43.31253915 86.76809173 -43.31253915 86.76809173 -0.00020255 176.86633088
4535930000 -0.00020300 176.66617924 -43.30298762 86.76452740 -43.30298762 86.76452740 -0.00020300 176.86287556
4540920000 -0.00020345 176.66250588 -43.29344662 86.76096306 -43.29344662 86.76096306 -0.00020345 176.85942023
4545910000 -0.00020389 176.65883250 -43.28391611 86.75739869 -43.28391611 86.75739869 -0.00020389 176.85596488
4550900000 -0.00020434 176.65515910 -43.27439609 86.75383431 -43.27439609 86.75383431 -0.00020434 176.85250952
4555890000 -0.00020479 176.65148569 -43.26488651 86.75026992 -43.26488651 86.75026992 -0.00020479 176.84905415
4560880000 -0.00020524 176.64781225 -43.25538737 86.74670550 -43.25538737 86.74670550 -0.00020524 176.84559876
4565870000 -0.00020569 176.64413879 -43.24589863 86.74314108 -43.24589863 86.74314108 -0.00020569 176.84214336
4570860000 -0.00020614 176.64046532 -43.23642028 86.73957663 -43.23642028 86.73957663 -0.00020614 176.83868794
4575850000 -0.00020659 176.63679182 -43.22695229 86.73601217 -43.22695229 86.73601217 -0.00020659 176.83523252
4580840000 -0.00020704 176.63311830 -43.21749463 86.73244769 -43.21749463 86.73244769 -0.00020704 176.83177707
4585830000 -0.00020749 176.62944477 -43.20804730 86.72888319 -43.20804730 86.72888319 -0.00020749 176.82832162
4590820000 -0.00020794 176.62577122 -43.19861026 86.72531868 -43.19861026 86.72531868 -0.00020794 176.82486614
4595810000 -0.00020839 176.62209764 -43.18918349 86.72175415 -43.18918349 86.72175415 -0.00020839 176.82141066
4600800000 -0.00020884 176.61842405 -43.17976698 86.71818961 -43.17976698 86.71818961 -0.00020884 176.81795516
4605790000 -0.00020929 176.61475044 -43.17036069 86.71462504 -43.17036069 86.71462504 -0.00020929 176.81449965
4610780000 -0.00020975 176.61107681 -43.16096460 86.71106047 -43.16096460 86.71106047 -0.00020975 176.81104412
4615770000 -0.00021020 176.60740316 -43.15157870 86.70749587 -43.15157870 86.70749587 -0.00021020 176.80758858
4620760000 -0.00021066 176.60372949 -43.14220297 86.70393126 -43.14220297 86.70393126 -0.00021066 176.80413303
4625750000 -0.00021111 176.60005580 -43.13283737 86.70036663 -43.13283737 86.70036663 -0.00021111 176.80067746
4630740000 -0.00021157 176.59638209 -43.12348189 86.69680198 -43.12348189 86.69680198 -0.00021157 176.79722188
4635730000 -0.00021202 176.59270836 -43.11413650 86.69323732 -43.11413650 86.69323732 -0.00021202 176.79376628
4640720000 -0.00021248 176.58903461 -43.10480119 86.68967264 -43.10480119 86.68967264 -0.00021248 176.79031067
4645710000 -0.00021294 176.58536085 -43.09547593 86.68610794 -43.09547593 86.68610794 -0.00021294 176.78685504
4650700000 -0.00021339 176.58168706 -43.08616071 86.68254323 -43.08616071 86.68254323 -0.00021339 176.78339941
4655690000 -0.00021385 176.57801325 -43.07685549 86.67897850 -43.07685549 86.67897850 -0.00021385 176.77994375
4660680000 -0.00021431 176.57433942 -43.06756026 86.67541376 -43.06756026 86.67541376 -0.00021431 176.77648809
4665670000 -0.00021477 176.57066558 -43.05827500 86.67184899 -43.05827500 86.67184899 -0.00021477 176.77303241
4670660000 -0.00021523 176.56699171 -43.04899968 86.66828421 -43.04899968 86.66828421 -0.00021523 176.76957671
4675650000 -0.00021569 176.56331783 -43.03973429 86.66471941 -43.03973429 86.66471941 -0.00021569 176.76612100
4680640000 -0.00021615 176.55964392 -43.03047880 86.66115460 -43.03047880 86.66115460 -0.00021615 176.76266528
4685630000 -0.00021661 176.55596999 -43.02123320 86.65758977 -43.02123320 86.65758977 -0.00021661 176.75920954
4690620000 -0.00021707 176.55229605 -43.01199745 86.65402492 -43.01199745 86.65402492 -0.00021707 176.75575379
4695610000 -0.00021753 176.54862208 -43.00277155 86.65046005 -43.00277155 86.65046005 -0.00021753 176.75229802
4700600000 -0.00021799 176.54494810 -42.99355546 86.64689517 -42.99355546 86.64689517 -0.00021799 176.74884224
4705590000 -0.00021845 176.54127410 -42.98434918 86.64333027 -42.98434918 86.64333027 -0.00021845 176.74538645
4710580000 -0.00021892 176.53760007 -42.97515267 86.63976536 -42.97515267 86.63976536 -0.00021892 176.74193064
4715570000 -0.00021938 176.53392603 -42.96596592 86.63620042 -42.96596592 86.63620042 -0.00021938 176.73847482
4720560000 -0.00021984 176.53025196 -42.95678890 86.63263547 -42.95678890 86.63263547 -0.00021984 176.73501898
4725550000 -0.00022031 176.52657788 -42.94762160 86.62907050 -42.94762160 86.62907050 -0.00022031 176.73156313
4730540000 -0.00022077 176.52290377 -42.93846400 86.62550552 -42.93846400 86.62550552 -0.00022077 176.72810726
4735530000 -0.00022124 176.51922965 -42.92931607 86.62194052 -42.92931607 86.62194052 -0.00022124 176.72465138
4740520000 -0.00022171 176.51555551 -42.92017779 86.61837550 -42.92017779 86.61837550 -0.00022171 176.72119549
4745510000 -0.00022217 176.51188134 -42.91104915 86.61481046 -42.91104915 86.61481046 -0.00022217 176.71773958
4750500000 -0.00022264 176.50820716 -42.90193013 86.61124541 -42.90193013 86.61124541 -0.00022264 176.71428366
4755490000 -0.00022311 176.50453295 -42.89282070 86.60768034 -42.89282070 86.60768034 -0.00022311 176.71082772
4760480000 -0.00022358 176.50085873 -42.88372084 86.60411525 -42.88372084 86.60411525 -0.00022358 176.70737177
4765470000 -0.00022404 176.49718449 -42.87463053 86.60055014 -42.87463053 86.60055014 -0.00022404 176.70391580
4770460000 -0.00022451 176.49351022 -42.86554976 86.59698502 -42.86554976 86.59698502 -0.00022451 176.70045982
4775450000 -0.00022498 176.48983594 -42.85647851 86.59341988 -42.85647851 86.59341988 -0.00022498 176.69700382
4780440000 -0.00022545 176.48616163 -42.84741674 86.58985472 -42.84741674 86.58985472 -0.00022545 176.69354781
4785430000 -0.00022592 176.48248731 -42.83836446 86.58628955 -42.83836446 86.58628955 -0.00022592 176.69009179
4790420000 -0.00022639 176.47881296 -42.82932162 86.58272436 -42.82932162 86.58272436 -0.00022639 176.68663575
4795410000 -0.00022686 176.47513860 -42.82028823 86.57915915 -42.82028823 86.57915915 -0.00022686 176.68317970
4800400000 -0.00022734 176.47146421 -42.81126424 86.57559392 -42.81126424 86.57559392 -0.00022734 176.67972363
4805390000 -0.00022781 176.46778980 -42.80224965 86.57202868 -42.80224965 86.57202868 -0.00022781 176.67626755
4810380000 -0.00022828 176.46411538 -42.79324444 86.56846341 -42.79324444 86.56846341 -0.00022828 176.67281145
4815370000 -0.00022876 176.46044093 -42.78424859 86.56489814 -42.78424859 86.56489814 -0.00022876 176.66935534
4820360000 -0.00022923 176.45676646 -42.77526207 86.56133284 -42.77526207 86.56133284 -0.00022923 176.66589921
4825350000 -0.00022970 176.45309198 -42.76628487 86.55776753 -42.76628487 86.55776753 -0.00022970 176.66244307
4830340000 -0.00023018 176.44941747 -42.75731698 86.55420219 -42.75731698 86.55420219 -0.00023018 176.65898692
4835330000 -0.00023065 176.44574294 -42.74835836 86.55063685 -42.74835836 86.55063685 -0.00023065 176.65553075
4840320000 -0.00023113 176.44206839 -42.73940900 86.54707148 -42.73940900 86.54707148 -0.00023113 176.65207456
4845310000 -0.00023161 176.43839382 -42.73046888 86.54350610 -42.73046888 86.54350610 -0.00023161 176.64861837
4850300000 -0.00023208 176.43471924 -42.72153798 86.53994069 -42.72153798 86.53994069 -0.00023208 176.64516215
4855290000 -0.00023256 176.43104463 -42.71261629 86.53637527 -42.71261629 86.53637527 -0.00023256 176.64170592
4860280000 -0.00023304 176.42737000 -42.70370379 86.53280984 -42.70370379 86.53280984 -0.00023304 176.63824968
4865270000 -0.00023352 176.42369534 -42.69480045 86.52924438 -42.69480045 86.52924438 -0.00023352 176.63479342
4870260000 -0.00023399 176.42002067 -42.68590625 86.52567891 -42.68590625 86.52567891 -0.00023399 176.63133715
4875250000 -0.00023447 176.41634598 -42.67702119 86.52211342 -42.67702119 86.52211342 -0.00023447 176.62788086
4880240000 -0.00023495 176.41267127 -42.66814523 86.51854791 -42.66814523 86.51854791 -0.00023495 176.62442456
4885230000 -0.00023543 176.40899654 -42.65927837 86.51498239 -42.65927837 86.51498239 -0.00023543 176.62096824
4890220000 -0.00023591 176.40532178 -42.65042058 86.51141685 -42.65042058 86.51141685 -0.00023591 176.61751191
4895210000 -0.00023640 176.40164701 -42.64157184 86.50785129 -42.64157184 86.50785129 -0.00023640 176.61405557
4900200000 -0.00023688 176.39797221 -42.63273214 86.50428571 -42.63273214 86.50428571 -0.00023688 176.61059920
4905190000 -0.00023736 176.39429740 -42.62390146 86.50072011 -42.62390146 86.50072011 -0.00023736 176.60714283
4910180000 -0.00023784 176.39062256 -42.61507977 86.49715450 -42.61507977 86.49715450 -0.00023784 176.60368644
4915170000 -0.00023832 176.38694770 -42.60626707 86.49358887 -42.60626707 86.49358887 -0.00023832 176.60023003
4920160000 -0.00023881 176.38327283 -42.59746333 86.49002322 -42.59746333 86.49002322 -0.00023881 176.59677361
4925150000 -0.00023929 176.37959793 -42.58866853 86.48645755 -42.58866853 86.48645755 -0.00023929 176.59331718
4930140000 -0.00023978 176.37592301 -42.57988266 86.48289187 -42.57988266 86.48289187 -0.00023978 176.58986073
4935130000 -0.00024026 176.37224807 -42.57110570 86.47932616 -42.57110570 86.47932616 -0.00024026 176.58640426
4940120000 -0.00024075 176.36857311 -42.56233763 86.47576044 -42.56233763 86.47576044 -0.00024075 176.58294778
4945110000 -0.00024123 176.36489812 -42.55357843 86.47219470 -42.55357843 86.47219470 -0.00024123 176.57949128
4950100000 -0.00024172 176.36122312 -42.54482808 86.46862895 -42.54482808 86.46862895 -0.00024172 176.57603477
4955090000 -0.00024221 176.35754810 -42.53608657 86.46506317 -42.53608657 86.46506317 -0.00024221 176.57257825
4960080000 -0.00024270 176.35387305 -42.52735388 86.46149738 -42.52735388 86.46149738 -0.00024270 176.56912171
4965070000 -0.00024318 176.35019799 -42.51863000 86.45793157 -42.51863000 86.45793157 -0.00024318 176.56566515
4970060000 -0.00024367 176.34652290 -42.50991489 86.45436574 -42.50991489 86.45436574 -0.00024367 176.56220858
4975050000 -0.00024416 176.34284779 -42.50120855 86.45079989 -42.50120855 86.45079989 -0.00024416 176.55875200
4980040000 -0.00024465 176.33917266 -42.49251096 86.44723403 -42.49251096 86.44723403 -0.00024465 176.55529540
4985030000 -0.00024514 176.33549751 -42.48382210 86.44366815 -42.48382210 86.44366815 -0.00024514 176.55183878
4990020000 -0.00024563 176.33182234 -42.47514196 86.44010225 -42.47514196 86.44010225 -0.00024563 176.54838215
4995010000 -0.00024612 176.32814715 -42.46647051 86.43653633 -42.46647051 86.43653633 -0.00024612 176.54492550
5000000000 -0.00024661 176.32447194 -42.45780774 86.43297039 -42.45780774 86.43297039 -0.00024661 176.54146884